Fe3 Ge1 Te2 H1                          
1.0
        7.8948173523         0.0000000000         0.0000000000
       -3.9474086761         6.8371123853         0.0000000000
        0.0000000000         0.0000000000        53.6046524048
   Te   Ge   Fe   H
   32   16   48   1 
Selective Dynamics
Cartesian  
     1.973704100         1.139518976        10.048398972 F F F
     1.973704100         1.139518976        26.852807999 F F F
     0.000000000         4.558074951        10.048398972 F F F
     0.000000000         4.558074951        26.852807999 F F F
     5.921113014         1.139518976        10.048398972 F F F
     5.921113014         1.139518976        26.852807999 F F F
     3.947408915         4.558074951        10.048398972 F F F
     3.947408915         4.558074951        26.852807999 F F F
     0.000000000         2.279036999         6.751842022 F F F
     0.000000000         2.279036999        23.556251526 F F F
    -1.973703980         5.697594166         6.751842022 F F F
    -1.973703980         5.697594166        23.556251526 F F F 
     3.947408199         2.279036999         6.751842022 F F F
     3.947408199         2.279036999        23.556251526 F F F
     1.973703861         5.697594166         6.751842022 F F F
     1.973703861         5.697594166        23.556251526 F F F
     0.000000000         2.279036999         1.656434417 F F F
     0.000000000         2.279036999        18.452157974 F F F
    -1.973703980         5.697594166         1.656434417 F F F
    -1.973703980         5.697594166        18.452157974 F F F
     3.947408199         2.279036999         1.656434417 F F F
     3.947408199         2.279036999        18.452157974 F F F
     1.973703861         5.697594166         1.656434417 F F F
     1.973703861         5.697594166        18.452157974 F F F
     1.973704100         1.139518976        15.152495384 F F F
     1.973704100         1.139518976        31.948217392 F F F
     0.000000000         4.558074951        15.152495384 F F F
     0.000000000         4.558074951        31.948217392 F F F
     5.921113014         1.139518976        15.152495384 F F F
     5.921113014         1.139518976        31.948217392 F F F
     3.947408915         4.558074951        15.152495384 F F F
     3.947408915         4.558074951        31.948217392 F F F
     0.000000000         2.279036999        12.601212502 F F F
     0.000000000         2.279036999        29.401321411 F F F
    -1.973703980         5.697594166        12.601212502 F F F
    -1.973703980         5.697594166        29.401321411 F F F
     3.947409153         2.279036999        12.601212502 F F F
     3.947409153         2.279036999        29.401321411 F F F
     1.973703861         5.697594166        12.601212502 F F F
     1.973703861         5.697594166        29.401321411 F F F
     1.973704100         1.139518976         4.203334332 F F F
     1.973704100         1.139518976        21.003438950 F F F
     0.000000000         4.558073997         4.203334332 F F F
     0.000000000         4.558073997        21.003438950 F F F
     5.921113014         1.139518976         4.203334332 F F F
     5.921113014         1.139518976        21.003438950 F F F
     3.947409153         4.558073997         4.203334332 F F F
     3.947409153         4.558073997        21.003438950 F F F
     0.000000000         0.000000000        11.368745804 F F F
     0.000000000         0.000000000        28.172874451 F F F
    -1.973704219         3.418555975        11.368745804 F F F
    -1.973704219         3.418555975        28.172874451 F F F
     3.947409153         0.000000000        11.368745804 F F F
     3.947409153         0.000000000        28.172874451 F F F
     1.973703980         3.418555975        11.368745804 F F F
     1.973703980         3.418555975        28.172874451 F F F
     0.000000000         0.000000000         5.431778908 F F F
     0.000000000         0.000000000        22.235906601 F F F
    -1.973704219         3.418555975         5.431778908 F F F
    -1.973704219         3.418555975        22.235906601 F F F
     3.947409153         0.000000000         5.431778908 F F F
     3.947409153         0.000000000        22.235906601 F F F
     1.973703980         3.418555975         5.431778908 F F F
     1.973703980         3.418555975        22.235906601 F F F
     0.000000000         0.000000000         2.966559887 F F F
     0.000000000         0.000000000        19.769109726 F F F
    -1.973704219         3.418555975         2.966559887 F F F
    -1.973704219         3.418555975        19.769109726 F F F
     3.947409153         0.000000000         2.966559887 F F F
     3.947409153         0.000000000        19.769109726 F F F
     1.973703980         3.418555975         2.966559887 F F F
     1.973703980         3.418555975        19.769109726 F F F
     0.000000000         0.000000000        13.835544586 F F F
     0.000000000         0.000000000        30.638092041 F F F
    -1.973704219         3.418555975        13.835544586 F F F
    -1.973704219         3.418555975        30.638092041 F F F
     3.947409153         0.000000000        13.835544586 F F F
     3.947409153         0.000000000        30.638092041 F F F
     1.973703980         3.418555975        13.835544586 F F F
     1.973703980         3.418555975        30.638092041 F F F
     1.973704100         1.139518976        12.602237701 F F F
     1.973704100         1.139518976        29.412382126 F F F
     0.000000000         4.558074951        12.602237701 F F F
     0.000000000         4.558074951        29.412382126 F F F
     5.921113014         1.139518976        12.602237701 F F F
     5.921113014         1.139518976        29.412382126 F F F
     3.947408915         4.558074951        12.602237701 F F F
     3.947408915         4.558074951        29.412382126 F F F
     0.000000000         2.279036999         4.192272186 F F F
     0.000000000         2.279036999        21.002414703 F F F
    -1.973703980         5.697594166         4.192272186 F F F
    -1.973703980         5.697594166        21.002414703 F F F
     3.947408199         2.279036999         4.192272186 F F F
     3.947408199         2.279036999        21.002414703 F F F
     1.973703861         5.697594166         4.192272186 F F F
     1.973703861         5.697594166        21.002414703 F F F
     0.000000000         2.279036999        33.648217392‬ F F T
	 