Fe3 Ge1 Te2 H1                          
   1.00000000000000     
     7.8948173522999996    0.0000000000000000    0.0000000000000000
    -3.9474086760999998    6.8371123853000002    0.0000000000000000
     0.0000000000000000    0.0000000000000000   53.6046524047999995
   Te   Ge   Fe   H 
    32    16    48     1
Direct
  0.3333333101904614  0.1666667060278257  0.1874532117761301
  0.3333333101904614  0.1666667060278257  0.5001510701029692
  0.3333324877803612  0.6666662522803368  0.1874529976023745
  0.3327119702589548  0.6663559935196334  0.5010364318508984
  0.8333337767814366  0.1666675571686077  0.1874529976023745
  0.8336440355421401  0.1672880746900142  0.5010364318508984
  0.8333338055121113  0.6666662522803368  0.1874529976023745
  0.8336440642728148  0.6663559935196334  0.5010364318508984
  0.1666666955025842  0.3333332031879199  0.1259606258769566
  0.1665357825455072  0.3334641161449970  0.4394167230425512
  0.1666667973635536  0.8333335090928662  0.1259606258769566
  0.1665358844064766  0.8330716831787121  0.4394167230425512
  0.6666664220363225  0.3333332031879199  0.1259606258769566
  0.6669282479504767  0.3334641161449970  0.4394167230425512
  0.6666666491116047  0.8333333838785535  0.1259605442595035
  0.6666666491116047  0.8333333838785535  0.4394124233019154
  0.1666689215710805  0.3333309771194236  0.0308438618791311
  0.1666669250979144  0.3333329735925897  0.3442440994941731
  0.1666690234320499  0.8333379612298588  0.0308438618791311
  0.1666670269588839  0.8333339682835267  0.3442440994941731
  0.6666619698993299  0.3333309771194236  0.0308438618791311
  0.6666659628456620  0.3333329735925897  0.3442440994941731
  0.6666666491116047  0.8333333838785535  0.0308438440822954
  0.6666666491116047  0.8333333838785535  0.3442294484845529
  0.3333333101904614  0.1666667060278257  0.2826809012688321
  0.3333333101904614  0.1666667060278257  0.5962328507915704
  0.3333412547149887  0.6666706357476504  0.2826793874690771
  0.3328719433121347  0.6664359800462235  0.5961425256304723
  0.8333293933141230  0.1666587902339803  0.2826793874690771
  0.8335640490155499  0.1671281016368343  0.5961425256304723
  0.8333294220447978  0.6666706357476504  0.2826793874690771
  0.8335640777462247  0.6664359800462235  0.5961425256304723
  0.1666655878117809  0.3333343108787233  0.2350403993653749
  0.1668011705377671  0.3331987281527370  0.5483840304217072
  0.1666656896727503  0.8333312937112595  0.2350403993653749
  0.1668012723987365  0.8336024591632321  0.5483840304217072
  0.6666687640832990  0.3333343108787233  0.2350403993653749
  0.6663975986313264  0.3331987281527370  0.5483840304217072
  0.6666666491116047  0.8333333838785535  0.2350398490593762
  0.6666666491116047  0.8333333838785535  0.5487106370189655
  0.3333333101904614  0.1666667060278257  0.0785388119985393
  0.3333333101904614  0.1666667060278257  0.3918186816990220
  0.3333353071838818  0.6666675522866584  0.0785396114564336
  0.3333187304294752  0.6666592639094553  0.3918132276180611
  0.8333323305145327  0.1666646646347996  0.0785396114564336
  0.8333406188917358  0.1666812413892062  0.3918132276180611
  0.8333322861149198  0.6666675522866584  0.0785396114564336
  0.8333405744921230  0.6666592639094553  0.3918132276180611
 -0.0000077733388299 -0.0000038866694150  0.2120797534156909
 -0.0014470272798604 -0.0007235136399302  0.5254678060977719
  0.0000000287306818  0.4999999718229020  0.2120799674933505
  0.0000000287306818  0.4999999718229020  0.5256444706747340
  0.5000039276899992 -0.0000038866694150  0.2120797534156909
  0.5007235546605147 -0.0007235136399302  0.5254678060977719
  0.5000038297553042  0.5000077451617319  0.2120797534156909
  0.5007234567258196  0.5014469991027625  0.5254678060977719
 -0.0000003066119074 -0.0000001533059537  0.1013127784412462
  0.0000379984968677  0.0000189992484339  0.4148573580356913
  0.0000000287306818  0.4999999718229020  0.1013135397927724
  0.0000000287306818  0.4999999718229020  0.4148187353518496
  0.5000001943265380 -0.0000001533059537  0.1013127784412462
  0.4999810417721503  0.0000189992484339  0.4148573580356913
  0.5000000963918430  0.5000002784348093  0.1013127784412462
  0.4999809438374553  0.4999619733260343  0.4148573580356913
 -0.0000010854270802 -0.0000005427135401  0.0553006489301080
 -0.0000172574881126 -0.0000086287440563  0.3688239891998082
  0.0000000287306818  0.4999999718229020  0.0553021938929711
  0.0000000287306818  0.4999999718229020  0.3687878175393962
  0.5000005837341244 -0.0000005427135401  0.0553006489301080
  0.5000086697646406 -0.0000086287440563  0.3688239891998082
  0.5000004857994294  0.5000010572499821  0.0553006489301080
  0.5000085718299456  0.5000172293110146  0.3688239891998082
 -0.0000017822221841 -0.0000008911110920  0.2580975483730143
  0.0075786494863371  0.0037893247431686  0.5719406952799736
  0.0000000287306818  0.4999999718229020  0.2580987099527374
  0.0000000287306818  0.4999999718229020  0.5714658089773268
  0.5000009321316762 -0.0000008911110920  0.2580975483730143
  0.4962107162774158  0.0037893247431686  0.5719406952799736
  0.5000008341969812  0.5000017540450863  0.2580975483730143
  0.4962106183427207  0.4924213223365649  0.5719406952799736
  0.3333333101904614  0.1666667060278257  0.2350995852502530
  0.3333333101904614  0.1666667060278257  0.5461127988623008
  0.3333347564192644  0.6666673865997882  0.2351013807469193
  0.3336827321243706  0.6668413744523414  0.5488844845592132
  0.8333326424619852  0.1666652885297047  0.2351013807469193
  0.8331586546094321  0.1663173128245984  0.5488844845592132
  0.8333326711926600  0.6666673865997882  0.2351013807469193
  0.8331586833401068  0.6668413744523414  0.5488844845592132
  0.1666646604720593  0.3333352382184447  0.0781427452833817
  0.1666874301211101  0.3333124685693939  0.3918282920587176
  0.1666647623330287  0.8333294390318166  0.0781427452833817
  0.1666875319820796  0.8333749783299181  0.3918282920587176
  0.6666704920973722  0.3333352382184447  0.0781427452833817
  0.6666249527992706  0.3333124685693939  0.3918282920587176
  0.6666666491116047  0.8333333838785535  0.0781430885272551
  0.6666666491116047  0.8333333838785535  0.3918437977076609
  0.3333333101904614  0.1666667060278257  0.6290023148195686
