Fe3 Ge1 Te2 H4                          
   1.00000000000000     
     7.8948173522999996    0.0000000000000000    0.0000000000000000
    -3.9474086760999998    6.8371123853000002    0.0000000000000000
     0.0000000000000000    0.0000000000000000   53.6046524047999995
   Te   Ge   Fe   H 
    32    16    48     4
Direct
  0.3333333101904614  0.1666667060278257  0.1874504928732884
  0.3333333101904614  0.1666667060278257  0.5004197423915027
  0.3333333389211433  0.6666666778507278  0.1874504928732884
  0.3333333389211433  0.6666666778507278  0.5004197423915027
  0.8333333512110457  0.1666667060278257  0.1874504928732884
  0.8333333512110457  0.1666667060278257  0.5004197423915027
  0.8333333799417204  0.6666666778507278  0.1874504928732884
  0.8333333799417204  0.6666666778507278  0.5004197423915027
  0.1666666328954278  0.3333332657950763  0.1259447734141455
  0.1666666328954278  0.3333332657950763  0.4394174104120711
  0.1666667347563973  0.8333333838785535  0.1259447734141455
  0.1666667347563973  0.8333333838785535  0.4394174104120711
  0.6666665472506352  0.3333332657950763  0.1259447734141455
  0.6666665472506352  0.3333332657950763  0.4394174104120711
  0.6666666491116047  0.8333333838785535  0.1259447734141455
  0.6666666491116047  0.8333333838785535  0.4394174104120711
  0.1666666328954278  0.3333332657950763  0.0308481306164282
  0.1666666328954278  0.3333332657950763  0.3442305726290853
  0.1666667347563973  0.8333333838785535  0.0308481306164282
  0.1666667347563973  0.8333333838785535  0.3442305726290853
  0.6666665472506352  0.3333332657950763  0.0308481306164282
  0.6666665472506352  0.3333332657950763  0.3442305726290853
  0.6666666491116047  0.8333333838785535  0.0308481306164282
  0.6666666491116047  0.8333333838785535  0.3442305726290853
  0.3333333101904614  0.1666667060278257  0.2826753550872522
  0.3333333101904614  0.1666667060278257  0.5956778652659832
  0.3333333389211433  0.6666666778507278  0.2826753550872522
  0.3333333389211433  0.6666666778507278  0.5956778652659832
  0.8333333512110457  0.1666667060278257  0.2826753550872522
  0.8333333512110457  0.1666667060278257  0.5956778652659832
  0.8333333799417204  0.6666666778507278  0.2826753550872522
  0.8333333799417204  0.6666666778507278  0.5956778652659832
  0.1666666328954278  0.3333332657950763  0.2350538809989361
  0.1666666328954278  0.3333332657950763  0.5481737883149290
  0.1666667347563973  0.8333333838785535  0.2350538809989361
  0.1666667347563973  0.8333333838785535  0.5481737883149290
  0.6666666739160050  0.3333332657950763  0.2350538809989361
  0.6666666739160050  0.3333332657950763  0.5481737883149290
  0.6666666491116047  0.8333333838785535  0.2350538809989361
  0.6666666491116047  0.8333333838785535  0.5481737883149290
  0.3333333101904614  0.1666667060278257  0.0785271862849048
  0.3333333101904614  0.1666667060278257  0.3918080772983735
  0.3333332657908556  0.6666665315901454  0.0785271862849048
  0.3333332657908556  0.6666665315901454  0.3918080772983735
  0.8333333512110457  0.1666667060278257  0.0785271862849048
  0.8333333512110457  0.1666667060278257  0.3918080772983735
  0.8333333068114328  0.6666665315901454  0.0785271862849048
  0.8333333068114328  0.6666665315901454  0.3918080772983735
  0.0000000000000000 -0.0000000000000000  0.2120749111230344
 -0.0000000000000000  0.0000000000000000  0.5256841439854008
  0.0000000287306818  0.4999999718229020  0.2120749111230344
  0.0000000287306818  0.4999999718229020  0.5256841439854008
  0.5000000410205843 -0.0000000000000000  0.2120749111230344
  0.5000000410205843  0.0000000000000000  0.5256841439854008
  0.4999999430858892  0.4999999718229020  0.2120749111230344
  0.4999999430858892  0.4999999718229020  0.5256841439854008
  0.0000000000000000  0.0000000000000000  0.1013033076569031
 -0.0000000000000000  0.0000000000000000  0.4148562915126675
  0.0000000287306818  0.4999999718229020  0.1013033076569031
  0.0000000287306818  0.4999999718229020  0.4148562915126675
  0.5000000410205843  0.0000000000000000  0.1013033076569031
  0.5000000410205843 -0.0000000000000000  0.4148562915126675
  0.4999999430858892  0.4999999718229020  0.1013033076569031
  0.4999999430858892  0.4999999718229020  0.4148562915126675
  0.0000000000000000  0.0000000000000000  0.0552984090427637
 -0.0000000000000000 -0.0000000000000000  0.3688221094819197
  0.0000000287306818  0.4999999718229020  0.0552984090427637
  0.0000000287306818  0.4999999718229020  0.3688221094819197
  0.5000000410205843  0.0000000000000000  0.0552984090427637
  0.5000000410205843 -0.0000000000000000  0.3688221094819197
  0.4999999430858892  0.4999999718229020  0.0552984090427637
  0.4999999430858892  0.4999999718229020  0.3688221094819197
  0.0000000000000000  0.0000000000000000  0.2580904008461843
 -0.0000000000000000 -0.0000000000000000  0.5735901516420980
  0.0000000287306818  0.4999999718229020  0.2580904008461843
  0.0000000287306818  0.4999999718229020  0.5735901516420980
  0.5000000410205843  0.0000000000000000  0.2580904008461843
  0.5000000410205843 -0.0000000000000000  0.5735901516420980
  0.4999999430858892  0.4999999718229020  0.2580904008461843
  0.4999999430858892  0.4999999718229020  0.5735901516420980
  0.3333333101904614  0.1666667060278257  0.2350857897868298
  0.3333333101904614  0.1666667060278257  0.5470592050352108
  0.3333333389211433  0.6666666778507278  0.2350857897868298
  0.3333333389211433  0.6666666778507278  0.5470592050352108
  0.8333333512110457  0.1666667060278257  0.2350857897868298
  0.8333333512110457  0.1666667060278257  0.5470592050352108
  0.8333333799417204  0.6666666778507278  0.2350857897868298
  0.8333333799417204  0.6666666778507278  0.5470592050352108
  0.1666666328954278  0.3333332657950763  0.0781418108298954
  0.1666666328954278  0.3333332657950763  0.3918474138532760
  0.1666667347563973  0.8333333838785535  0.0781418108298954
  0.1666667347563973  0.8333333838785535  0.3918474138532760
  0.6666665472506352  0.3333332657950763  0.0781418108298954
  0.6666665472506352  0.3333332657950763  0.3918474138532760
  0.6666666491116047  0.8333333838785535  0.0781418108298954
  0.6666666491116047  0.8333333838785535  0.3918474138532760
  0.3333333101904614  0.1666667060278257  0.6285481634365579
  0.8333333512110457  0.1666667060278257  0.6285481634365579
  0.8333333799417204  0.6666666778507278  0.6285481634365579
  0.3333333389211433  0.6666666778507278  0.6285481634365579
 