Fe3 Ge1 Te2 H4                         
1.0
        7.8948173523         0.0000000000         0.0000000000
       -3.9474086761         6.8371123853         0.0000000000
        0.0000000000         0.0000000000        53.6046524048
   Te   Ge   Fe   H
   32   16   48   4
Cartesian
    1.973704    1.139519   10.049988
    1.973704    1.139519   26.852314
    0.000000    4.558075   10.049988
    0.000000    4.558075   26.852314
    5.921113    1.139519   10.049988
    5.921113    1.139519   26.852314
    3.947409    4.558075   10.049988
    3.947409    4.558075   26.852314
    0.000000    2.279037    6.752337
    0.000000    2.279037   23.554663
   -1.973704    5.697594    6.752337
   -1.973704    5.697594   23.554663
    3.947408    2.279037    6.752337
    3.947408    2.279037   23.554663
    1.973704    5.697594    6.752337
    1.973704    5.697594   23.554663
    0.000000    2.279037    1.648824
    0.000000    2.279037   18.451151
   -1.973704    5.697594    1.648824
   -1.973704    5.697594   18.451151
    3.947408    2.279037    1.648824
    3.947408    2.279037   18.451151
    1.973704    5.697594    1.648824
    1.973704    5.697594   18.451151
    1.973704    1.139519   15.153502
    1.973704    1.139519   31.955828
    0.000000    4.558075   15.153502
    0.000000    4.558075   31.955828
    5.921113    1.139519   15.153502
    5.921113    1.139519   31.955828
    3.947409    4.558075   15.153502
    3.947409    4.558075   31.955828
    0.000000    2.279037   12.601745
    0.000000    2.279037   29.404072
   -1.973704    5.697594   12.601745
   -1.973704    5.697594   29.404072
    3.947409    2.279037   12.601745
    3.947409    2.279037   29.404072
    1.973704    5.697594   12.601745
    1.973704    5.697594   29.404072
    1.973704    1.139519    4.200582
    1.973704    1.139519   21.002907
    0.000000    4.558074    4.200582
    0.000000    4.558074   21.002907
    5.921113    1.139519    4.200582
    5.921113    1.139519   21.002907
    3.947409    4.558074    4.200582
    3.947409    4.558074   21.002907
    0.000000    0.000000   11.368445
    0.000000    0.000000   28.170773
   -1.973704    3.418556   11.368445
   -1.973704    3.418556   28.170773
    3.947409    0.000000   11.368445
    3.947409    0.000000   28.170773
    1.973704    3.418556   11.368445
    1.973704    3.418556   28.170773
    0.000000    0.000000    5.433880
    0.000000    0.000000   22.236206
   -1.973704    3.418556    5.433880
   -1.973704    3.418556   22.236206
    3.947409    0.000000    5.433880
    3.947409    0.000000   22.236206
    1.973704    3.418556    5.433880
    1.973704    3.418556   22.236206
    0.000000    0.000000    2.967282
    0.000000    0.000000   19.769609
   -1.973704    3.418556    2.967282
   -1.973704    3.418556   19.769609
    3.947409    0.000000    2.967282
    3.947409    0.000000   19.769609
    1.973704    3.418556    2.967282
    1.973704    3.418556   19.769609
    0.000000    0.000000   13.835044
    0.000000    0.000000   30.637369
   -1.973704    3.418556   13.835044
   -1.973704    3.418556   30.637369
    3.947409    0.000000   13.835044
    3.947409    0.000000   30.637369
    1.973704    3.418556   13.835044
    1.973704    3.418556   30.637369
    1.973704    1.139519   12.601745
    1.973704    1.139519   29.404072
    0.000000    4.558075   12.601745
    0.000000    4.558075   29.404072
    5.921113    1.139519   12.601745
    5.921113    1.139519   29.404072
    3.947409    4.558075   12.601745
    3.947409    4.558075   29.404072
    0.000000    2.279037    4.200582
    0.000000    2.279037   21.002907
   -1.973704    5.697594    4.200582
   -1.973704    5.697594   21.002907
    3.947408    2.279037    4.200582
    3.947408    2.279037   21.002907
    1.973704    5.697594    4.200582
    1.973704    5.697594   21.002907
	1.973704    1.139519   33.655828
	5.921113    1.139519   33.655828
	3.947409    4.558075   33.655828
	0.000000    4.558075   33.655828