Fe3 Ge1 Te2 H1 bridge                   
   1.00000000000000     
     7.8948173522999996    0.0000000000000000    0.0000000000000000
    -3.9474086760999998    6.8371123853000002    0.0000000000000000
     0.0000000000000000    0.0000000000000000   53.6046524047999995
   Te   Ge   Fe   H 
    32    16    48     1
Direct
  0.3333258778948477  0.1666639433089495  0.1874239197734214
  0.3304861139578134  0.1639354715644213  0.5014389933926682
  0.3333385773016814  0.6666771546118111  0.1874207655435056
  0.3310878536055596  0.6621757072195676  0.5008743370237169
  0.8333380352276242  0.1666639433089495  0.1874239197734214
  0.8334493274201306  0.1639354715644213  0.5014389933926682
  0.8333351409039413  0.6666702213082740  0.1874227985038680
  0.8320247609929442  0.6640494614862797  0.5011289382319679
  0.1668022365055251  0.3336044730152637  0.1258969773395928
  0.1665262048305572  0.3330524096653280  0.4394997164987271
  0.1666368639360649  0.8333321683003294  0.1259031415869173
  0.1664176373418822  0.8332109557695244  0.4394792813009585
  0.6666761021777059  0.3333523252364026  0.1259012858243509
  0.6667923623107543  0.3335848455024984  0.4395224309805648
  0.6666952892805295  0.8333321683003294  0.1259031415869173
  0.6667933033439069  0.8332109557695244  0.4394792813009585
  0.1666518819076984  0.3333037638196104  0.0307742741679381
  0.1667010104332309  0.3334020208706753  0.3443091134138996
  0.1666506850219624  0.8333349181068385  0.0307775782127433
  0.1666794408733175  0.8333334716968318  0.3443042708011410
  0.6666406854777784  0.3332814918365472  0.0307765063692717
  0.6666617726479348  0.3333236661768607  0.3443195022438678
  0.6666842180011407  0.8333349181068385  0.0307775782127433
  0.6666540157397793  0.8333334716968318  0.3443042708011410
  0.3333993496633266  0.1667620971956342  0.2826770577438601
  0.3593184365474204  0.1719748629564156  0.5976784457911408
  0.3333986799186357  0.6667973598457198  0.2826755911471852
  0.3309017225571127  0.6618034451226738  0.5959051271695120
  0.8333627173458301  0.1667620971956342  0.2826770577438601
  0.8126563962225178  0.1719748629564156  0.5976784457911408
  0.8333410335131441  0.6666820065266791  0.2826788171902590
  0.8324705687316469  0.6649410769636845  0.5965285853339141
  0.1666725421832636  0.3333450843707408  0.2349830877500954
  0.1645283959358167  0.3290567918758469  0.5505869547786476
  0.1666678720919808  0.8333391297080094  0.2349853031594074
  0.1653188725377762  0.8294959184704239  0.5490239436304489
  0.6666721527688715  0.3333441847411934  0.2349816551690907
  0.6643227986222130  0.3286454764478764  0.5476476073266651
  0.6666712425322936  0.8333391297080094  0.2349853031594074
  0.6641770308489121  0.8294959184704239  0.5490239436304489
  0.3333668102053006  0.1667628888462447  0.0786236223805414
  0.3333320626677614  0.1666510241453075  0.3918879183226788
  0.3332821694056579  0.6665643388197571  0.0786205327639228
  0.3333354483161725  0.6666708966407862  0.3918959178848590
  0.8333960484544671  0.1667628888462447  0.0786236223805414
  0.8333189312910688  0.1666510241453075  0.3918879183226788
  0.8332907113898180  0.6665813019873140  0.0786201613429778
  0.8333192135365730  0.6666383062808238  0.3918528284482184
 -0.0000051328753190 -0.0000102657506380  0.2120723603855067
 -0.0021332322888359 -0.0042664645776718  0.5259130659196402
  0.0000114042121729  0.5000121423278311  0.2120738370902218
 -0.0016079868418637  0.4973419254147639  0.5260196549875384
  0.5000007713027397  0.0000014218047166  0.2120706061010078
  0.4983635520090120 -0.0032730167827390  0.5248783788307656
  0.5000007078362987  0.5000121423278311  0.2120738370902218
  0.4989498819772679  0.4973419254147639  0.5260196549875384
  0.0000525571257655  0.0001051142515310  0.1012288572035090
 -0.0000331068880636 -0.0000662137761272  0.4148913805018540
 -0.0000311416708188  0.5000095907169725  0.1012276630200451
 -0.0000277782177133  0.4999112114791991  0.4149164235950989
  0.4999970105734908 -0.0000060996537814  0.1012285264672563
  0.5000264180958622  0.0000527153909606  0.4149485294993825
  0.5000407021084321  0.5000095907169725  0.1012276630200451
  0.4999389594175527  0.4999112114791991  0.4149164235950989
  0.0000152181531173  0.0000304363062347  0.0552259060221202
 -0.0000092450031848 -0.0000184900063696  0.3688683846921917
 -0.0000275680830613  0.4999729278520711  0.0552268040318977
  0.9999876730485876  0.5000185305766653  0.3688748084550082
  0.4999912244545934 -0.0000176718915761  0.0552294771875451
  0.5000014338138719  0.0000027468269808  0.3689083641694723
  0.5000004656557731  0.4999729278520711  0.0552268040318977
  0.5000308272487176  0.5000185305766653  0.3688748084550082
  0.0000069990290903  0.0000139980581806  0.2580964273484779
 -0.0021578477456325 -0.0043156954912650  0.5716327922024972
  0.0000237383400257  0.5000380777935912  0.2580932381695635
  0.9941603393194726  0.4956202167179785  0.5721075725641429
  0.5000250475040822  0.0000499742074010  0.2580927252924087
  0.4958812457332221 -0.0082376293343193  0.5705361955650823
  0.5000143091742058  0.5000380777935912  0.2580932381695635
  0.5014598471191466  0.4956202167179785  0.5721075725641429
  0.3333458753487843  0.1666945238938363  0.2351039484251395
  0.3295864182829727  0.1623622838738143  0.5489173760599472
  0.3333278145678928  0.6666556291442339  0.2351031059577066
  0.3303485222602999  0.6606970445290481  0.5484570581663325
  0.8333486183585747  0.1666945238938363  0.2351039484251395
  0.8327758354043644  0.1623622838738143  0.5489173760599472
  0.8333217589844187  0.6666434574692285  0.2351074640162797
  0.8318985316061218  0.6637970027126356  0.5488408224313699
  0.1666887496062686  0.3333774992167506  0.0780310395607569
  0.1666395835149549  0.3332791670341234  0.3918923872351939
  0.1666656762585254  0.8333099227722919  0.0780348129408271
  0.1666752238547662  0.8333586186687912  0.3919126137096733
  0.6666651442139874  0.3333304093089648  0.0780324999578733
  0.6666401888870130  0.3332804986550162  0.3919347480720350
  0.6666442314300314  0.8333099227722919  0.0780348129408271
  0.6666833797302899  0.8333586186687912  0.3919126137096733
  0.6215596618632433  0.2431193683528049  0.6150579298939113
