Fe3 Ge1 Te2                             
1.0
        7.8948173523         0.0000000000         0.0000000000
       -3.9474086761         6.8371123853         0.0000000000
        0.0000000000         0.0000000000        53.6046524048
   Te   Ge   Fe   H
   32   16   48   1
Cartesian
     1.973704100         1.139518976        10.048398972
     1.973704100         1.139518976        26.852807999
     0.000000000         4.558074951        10.048398972
     0.000000000         4.558074951        26.852807999
     5.921113014         1.139518976        10.048398972
     5.921113014         1.139518976        26.852807999
     3.947408915         4.558074951        10.048398972
     3.947408915         4.558074951        26.852807999
     0.000000000         2.279036999         6.751842022
     0.000000000         2.279036999        23.556251526
    -1.973703980         5.697594166         6.751842022
    -1.973703980         5.697594166        23.556251526
     3.947408199         2.279036999         6.751842022
     3.947408199         2.279036999        23.556251526
     1.973703861         5.697594166         6.751842022
     1.973703861         5.697594166        23.556251526
     0.000000000         2.279036999         1.656434417
     0.000000000         2.279036999        18.452157974
    -1.973703980         5.697594166         1.656434417
    -1.973703980         5.697594166        18.452157974
     3.947408199         2.279036999         1.656434417
     3.947408199         2.279036999        18.452157974
     1.973703861         5.697594166         1.656434417
     1.973703861         5.697594166        18.452157974
     1.973704100         1.139518976        15.152495384
     1.973704100         1.139518976        31.948217392
     0.000000000         4.558074951        15.152495384
     0.000000000         4.558074951        31.948217392
     5.921113014         1.139518976        15.152495384
     5.921113014         1.139518976        31.948217392
     3.947408915         4.558074951        15.152495384
     3.947408915         4.558074951        31.948217392
     0.000000000         2.279036999        12.601212502
     0.000000000         2.279036999        29.401321411
    -1.973703980         5.697594166        12.601212502
    -1.973703980         5.697594166        29.401321411
     3.947409153         2.279036999        12.601212502
     3.947409153         2.279036999        29.401321411
     1.973703861         5.697594166        12.601212502
     1.973703861         5.697594166        29.401321411
     1.973704100         1.139518976         4.203334332
     1.973704100         1.139518976        21.003438950
     0.000000000         4.558073997         4.203334332
     0.000000000         4.558073997        21.003438950
     5.921113014         1.139518976         4.203334332
     5.921113014         1.139518976        21.003438950
     3.947409153         4.558073997         4.203334332
     3.947409153         4.558073997        21.003438950
     0.000000000         0.000000000        11.368745804
     0.000000000         0.000000000        28.172874451
    -1.973704219         3.418555975        11.368745804
    -1.973704219         3.418555975        28.172874451
     3.947409153         0.000000000        11.368745804
     3.947409153         0.000000000        28.172874451
     1.973703980         3.418555975        11.368745804
     1.973703980         3.418555975        28.172874451
     0.000000000         0.000000000         5.431778908
     0.000000000         0.000000000        22.235906601
    -1.973704219         3.418555975         5.431778908
    -1.973704219         3.418555975        22.235906601
     3.947409153         0.000000000         5.431778908
     3.947409153         0.000000000        22.235906601
     1.973703980         3.418555975         5.431778908
     1.973703980         3.418555975        22.235906601
     0.000000000         0.000000000         2.966559887
     0.000000000         0.000000000        19.769109726
    -1.973704219         3.418555975         2.966559887
    -1.973704219         3.418555975        19.769109726
     3.947409153         0.000000000         2.966559887
     3.947409153         0.000000000        19.769109726
     1.973703980         3.418555975         2.966559887
     1.973703980         3.418555975        19.769109726
     0.000000000         0.000000000        13.835544586
     0.000000000         0.000000000        30.638092041
    -1.973704219         3.418555975        13.835544586
    -1.973704219         3.418555975        30.638092041
     3.947409153         0.000000000        13.835544586
     3.947409153         0.000000000        30.638092041
     1.973703980         3.418555975        13.835544586
     1.973703980         3.418555975        30.638092041
     1.973704100         1.139518976        12.602237701
     1.973704100         1.139518976        29.412382126
     0.000000000         4.558074951        12.602237701
     0.000000000         4.558074951        29.412382126
     5.921113014         1.139518976        12.602237701
     5.921113014         1.139518976        29.412382126
     3.947408915         4.558074951        12.602237701
     3.947408915         4.558074951        29.412382126
     0.000000000         2.279036999         4.192272186
     0.000000000         2.279036999        21.002414703
    -1.973703980         5.697594166         4.192272186
    -1.973703980         5.697594166        21.002414703
     3.947408199         2.279036999         4.192272186
     3.947408199         2.279036999        21.002414703
     1.973703861         5.697594166         4.192272186
     1.973703861         5.697594166        21.002414703
	 3.947408500		 1.139519000	    33.418217392‬
