Fe3 Ge1 Te2 H1                          
   1.00000000000000     
     7.8948173522999996    0.0000000000000000    0.0000000000000000
    -3.9474086760999998    6.8371123853000002    0.0000000000000000
     0.0000000000000000    0.0000000000000000   53.6046524047999995
   Te   Ge   Fe   H 
    32    16    48     2
Direct
  0.3333369494582413  0.1666739845633856  0.1874528171520984
  0.3335890472393361  0.1671781801255753  0.5002866167476455
  0.3333369701670348  0.6666739403425109  0.1874519572146048
  0.3331031678596312  0.6662063357277036  0.5011371611361536
  0.8333369904788256  0.1666739845633856  0.1874528171520984
  0.8335890882599204  0.1671781801255753  0.5002866167476455
  0.8333370111876121  0.6666739403425109  0.1874519572146048
  0.8331032088802083  0.6662063357277036  0.5011371611361536
  0.1666699780353113  0.3333399560748432  0.1259563713531913
  0.1666693239045076  0.3333386478132359  0.4393994732945445
  0.1666708697444059  0.8333416538545706  0.1259562194501732
  0.1666309704594093  0.8332618552845774  0.4393882101810523
  0.6666698923905187  0.3333399560748432  0.1259563713531913
  0.6666692382597149  0.3333386478132359  0.4393994732945445
  0.6666707840996134  0.8333416538545706  0.1259562194501732
  0.6666308848146167  0.8332618552845774  0.4393882101810523
  0.1666701698610043  0.3333403397262292  0.0308569959682500
  0.1666741137961716  0.3333482275965637  0.3442404635254207
  0.1666708089710828  0.8333415323079245  0.0308569107951287
  0.1666670548940785  0.8333340241539159  0.3442308949919659
  0.6666700842162118  0.3333403397262292  0.0308569959682500
  0.6666740281513792  0.3333482275965637  0.3442404635254207
  0.6666707233262902  0.8333415323079245  0.0308569107951287
  0.6666669692492858  0.8333340241539159  0.3442308949919659
  0.3333372360386909  0.1666745577242848  0.2826844882465483
  0.3336600436331750  0.1673201729132529  0.5960080622910863
  0.3333365706431219  0.6666731412946851  0.2826837007973979
  0.3332860800454365  0.6665721600993143  0.5962606573297364
  0.8333372770592753  0.1666745577242848  0.2826844882465483
  0.8336600846537594  0.1673201729132529  0.5960080622910863
  0.8333366116636990  0.6666731412946851  0.2826837007973979
  0.8332861210660139  0.6665721600993143  0.5962606573297364
  0.1666702621167346  0.3333405242376898  0.2350580152597065
  0.1665163796706977  0.3330327593456160  0.5483201522842194
  0.1666719803924766  0.8333438751507124  0.2350581688474718
  0.1666833594425313  0.8333666332508216  0.5486224705501253
  0.6666703031373117  0.3333405242376898  0.2350580152597065
  0.6665164206912750  0.3330327593456160  0.5483201522842194
  0.6666718947476841  0.8333438751507124  0.2350581688474718
  0.6666832737977387  0.8333666332508216  0.5486224705501253
  0.3333375479751577  0.1666751815972185  0.0785079136775839
  0.3333436268874736  0.1666873394218500  0.3917818895705287
  0.3333381795493894  0.6666763591072130  0.0785078174916045
  0.3333332734157113  0.6666665468398567  0.3917848554234693
  0.8333375889957422  0.1666751815972185  0.0785079136775839
  0.8333436679080578  0.1666873394218500  0.3917818895705287
  0.8333382205699663  0.6666763591072130  0.0785078174916045
  0.8333333144362883  0.6666665468398567  0.3917848554234693
  0.0000033498728958  0.0000066997457916  0.2120788811834012
 -0.0009764202552474 -0.0019528405104948  0.5255407456437433
  0.0000051745949910  0.5000102635515203  0.2120788271473856
  0.0010249953466358  0.5020499050548101  0.5254782466824245
  0.5000033908934801  0.0000066997457916  0.2120788811834012
  0.4990236207653369 -0.0019528405104948  0.5255407456437433
  0.5000050889501984  0.5000102635515203  0.2120788271473856
  0.5010249097018431  0.5020499050548101  0.5254782466824245
  0.0000046142283908  0.0000092284567816  0.1013138079086611
  0.0000177780588348  0.0000355561176695  0.4148612008009681
  0.0000039504891595  0.5000078153398574  0.1013141326547192
 -0.0000118419132193  0.4999762305350996  0.4148614937606994
  0.5000046552489751  0.0000092284567816  0.1013138079086611
  0.5000178190794191  0.0000355561176695  0.4148612008009681
  0.5000038648443670  0.5000078153398574  0.1013141326547192
  0.4999880724419881  0.4999762305350996  0.4148614937606994
  0.0000044405813125  0.0000088811626251  0.0553061805457582
  0.0000033380464652  0.0000066760929303  0.3688285040442015
  0.0000042233401245  0.5000083610417874  0.0553063750080238
  0.0000080671053403  0.5000160485722193  0.3688212661899909
  0.5000044816018968  0.0000088811626251  0.0553061805457582
  0.5000033790670495  0.0000066760929303  0.3688285040442015
  0.5000041376953320  0.5000083610417874  0.0553063750080238
  0.5000079814605477  0.5000160485722193  0.3688212661899909
  0.0000045455140112  0.0000090910280225  0.2580937926400656
  0.0039257494084932  0.0078514988169864  0.5726738725057101
  0.0000036594265698  0.5000072332146778  0.2580929449457378
 -0.0032500857787535  0.4934997428040313  0.5718069433107109
  0.5000045865345956  0.0000090910280225  0.2580937926400656
  0.5039257904290775  0.0078514988169864  0.5726738725057101
  0.5000035737817772  0.5000072332146778  0.2580929449457378
  0.4967498285764539  0.4934997428040313  0.5718069433107109
  0.3333388705734989  0.1666778267939009  0.2350903283016520
  0.3330233885092048  0.1660468626653125  0.5464199284258138
  0.3333366196449704  0.6666732392983820  0.2350908204019338
  0.3334338856497407  0.6668677713079227  0.5490535319923756
  0.8333389115940834  0.1666778267939009  0.2350903283016520
  0.8330234295297889  0.1660468626653125  0.5464199284258138
  0.8333366606655477  0.6666732392983820  0.2350908204019338
  0.8334339266703177  0.6668677713079227  0.5490535319923756
  0.1666704683052498  0.3333409366147203  0.0781562178068440
  0.1666623226572174  0.3333246453186554  0.3918572797460205
  0.1666719125514371  0.8333437394686330  0.0781562356755536
  0.1666806308879298  0.8333611761416186  0.3918618103428637
  0.6666703826604574  0.3333409366147203  0.0781562178068440
  0.6666622370124250  0.3333246453186554  0.3918572797460205
  0.6666718269066445  0.8333437394686330  0.0781562356755536
  0.6666805452431372  0.8333611761416186  0.3918618103428637
  0.3325359268367147  0.1650719393203322  0.6287703743254925
  0.8325359678572990  0.1650719393203322  0.6287703743254925
