Fe3 Ge1 Te2                             
   1.00000000000000     
     7.8948173522999996    0.0000000000000000    0.0000000000000000
    -3.9474086760999998    6.8371123853000002    0.0000000000000000
     0.0000000000000000    0.0000000000000000   53.6046524047999995
   Te   Ge   Fe
    31    16    48
Selective dynamics
Direct
  0.3333333101904614  0.1666667060278257  0.1874538598649735   F   F   F
  0.3333333101904614  0.1666667060278257  0.5010618606668465   T   T   T
  0.3333333389211433  0.6666666778507278  0.1874538598649735   F   F   F
  0.3258530629242643  0.6629265398522882  0.5003893456077645   T   T   T
  0.8333333512110457  0.1666667060278257  0.1874538598649735   F   F   F
  0.8370734892094852  0.1741469820247047  0.5003893456077645   T   T   T
  0.8333333799417204  0.6666666778507278  0.1874538598649735   F   F   F
  0.8370735179401599  0.6629265398522882  0.5003893456077645   T   T   T
  0.1666666328954278  0.3333332657950763  0.1259562686651350   F   F   F
  0.1666666328954278  0.3333332657950763  0.4394441702953884   F   F   F
  0.1666667347563973  0.8333333838785535  0.1259562686651350   F   F   F
  0.1666667347563973  0.8333333838785535  0.4394441702953884   F   F   F
  0.6666665472506352  0.3333332657950763  0.1259562686651350   F   F   F
  0.6666665472506352  0.3333332657950763  0.4394441702953884   F   F   F
  0.6666666491116047  0.8333333838785535  0.1259562686651350   F   F   F
  0.6666666491116047  0.8333333838785535  0.4394441702953884   F   F   F
  0.1666666328954278  0.3333332657950763  0.0309009372449864   F   F   F
  0.1666666328954278  0.3333332657950763  0.3442268007011222   F   F   F
  0.1666667347563973  0.8333333838785535  0.0309009372449864   F   F   F
  0.1666667347563973  0.8333333838785535  0.3442268007011222   F   F   F
  0.6666665472506352  0.3333332657950763  0.0309009372449864   F   F   F
  0.6666665472506352  0.3333332657950763  0.3442268007011222   F   F   F
  0.6666666491116047  0.8333333838785535  0.0309009372449864   F   F   F
  0.6666666491116047  0.8333333838785535  0.3442268007011222   F   F   F
  0.3333333101904614  0.1666667060278257  0.2826712667694338   F   F   F
  0.3333333389211433  0.6666666778507278  0.2826712667694338   F   F   F
  0.3382751669406419  0.6691375918604772  0.5961137130259464   T   T   T
  0.8333333512110457  0.1666667060278257  0.2826712667694338   F   F   F
  0.8308624372012963  0.1617248780083271  0.5961137130259464   T   T   T
  0.8333333799417204  0.6666666778507278  0.2826712667694338   F   F   F
  0.8308624659319710  0.6691375918604772  0.5961137130259464   T   T   T
  0.1666666328954278  0.3333332657950763  0.2350768531216474   F   F   F
  0.1722829083412618  0.3277169903492423  0.5550351905367734   T   T   T
  0.1666667347563973  0.8333333838785535  0.2350768531216474   F   F   F
  0.1722830102022312  0.8445659347702215  0.5550351905367734   T   T   T
  0.6666666739160050  0.3333332657950763  0.2350768531216474   F   F   F
  0.6554341230243370  0.3277169903492423  0.5550351905367734   T   T   T
  0.6666666491116047  0.8333333838785535  0.2350768531216474   F   F   F
  0.6666666491116047  0.8333333838785535  0.5462268496891280   T   T   T
  0.3333333101904614  0.1666667060278257  0.0784136042569230   F   F   F
  0.3333333101904614  0.1666667060278257  0.3918211956938151   F   F   F
  0.3333332657908556  0.6666665315901454  0.0784136042569230   F   F   F
  0.3333332657908556  0.6666665315901454  0.3918211956938151   F   F   F
  0.8333333512110457  0.1666667060278257  0.0784136042569230   F   F   F
  0.8333333512110457  0.1666667060278257  0.3918211956938151   F   F   F
  0.8333333068114328  0.6666665315901454  0.0784136042569230   F   F   F
  0.8333333068114328  0.6666665315901454  0.3918211956938151   F   F   F
  0.0000000000000000  0.0000000000000000  0.2120850614634691   F   F   F
 -0.0050587810230277 -0.0025293905115139  0.5242780005901566   T   T   T
  0.0000000287306818  0.4999999718229020  0.2120850614634691   F   F   F
  0.0000000287306818  0.4999999718229020  0.5265574484919677   T   T   T
  0.5000000410205843  0.0000000000000000  0.2120850614634691   F   F   F
  0.5025294315320981 -0.0025293905115139  0.5242780005901566   T   T   T
  0.4999999430858892  0.4999999718229020  0.2120850614634691   F   F   F
  0.5025293335974030  0.5050587528459298  0.5242780005901566   T   T   T
  0.0000000000000000  0.0000000000000000  0.1013303651142365   F   F   F
  0.0000000000000000  0.0000000000000000  0.4148130060070869   F   F   F
  0.0000000287306818  0.4999999718229020  0.1013303651142365   F   F   F
  0.0000000287306818  0.4999999718229020  0.4148130060070869   F   F   F
  0.5000000410205843  0.0000000000000000  0.1013303651142365   F   F   F
  0.5000000410205843  0.0000000000000000  0.4148130060070869   F   F   F
  0.4999999430858892  0.4999999718229020  0.1013303651142365   F   F   F
  0.4999999430858892  0.4999999718229020  0.4148130060070869   F   F   F
  0.0000000000000000  0.0000000000000000  0.0553414650951893   F   F   F
  0.0000000000000000  0.0000000000000000  0.3687946682446892   F   F   F
  0.0000000287306818  0.4999999718229020  0.0553414650951893   F   F   F
  0.0000000287306818  0.4999999718229020  0.3687946682446892   F   F   F
  0.5000000410205843  0.0000000000000000  0.0553414650951893   F   F   F
  0.5000000410205843  0.0000000000000000  0.3687946682446892   F   F   F
  0.4999999430858892  0.4999999718229020  0.0553414650951893   F   F   F
  0.4999999430858892  0.4999999718229020  0.3687946682446892   F   F   F
  0.0000000000000000  0.0000000000000000  0.2581034365360608   F   F   F
 -0.0248373383377172 -0.0124186691688586  0.5694491501755419   T   T   T
  0.0000000287306818  0.4999999718229020  0.2581034365360608   F   F   F
  0.0000000287306818  0.4999999718229020  0.5721332425908623   T   T   T
  0.5000000410205843  0.0000000000000000  0.2581034365360608   F   F   F
  0.5124187101894428 -0.0124186691688586  0.5694491501755419   T   T   T
  0.4999999430858892  0.4999999718229020  0.2581034365360608   F   F   F
  0.5124186122547478  0.5248373101606192  0.5694491501755419   T   T   T
  0.3333333101904614  0.1666667060278257  0.2350959745962555   F   F   F
  0.3333333101904614  0.1666667060278257  0.5467907770589936   T   T   T
  0.3333333389211433  0.6666666778507278  0.2350959745962555   F   F   F
  0.3223727212239403  0.6611863690021264  0.5470416566651704   T   T   T
  0.8333333512110457  0.1666667060278257  0.2350959745962555   F   F   F
  0.8388136600596471  0.1776273237250288  0.5470416566651704   T   T   T
  0.8333333799417204  0.6666666778507278  0.2350959745962555   F   F   F
  0.8388136887903218  0.6611863690021264  0.5470416566651704   T   T   T
  0.1666666328954278  0.3333332657950763  0.0782072415719028   F   F   F
  0.1666666328954278  0.3333332657950763  0.3918020928743005   F   F   F
  0.1666667347563973  0.8333333838785535  0.0782072415719028   F   F   F
  0.1666667347563973  0.8333333838785535  0.3918020928743005   F   F   F
  0.6666665472506352  0.3333332657950763  0.0782072415719028   F   F   F
  0.6666665472506352  0.3333332657950763  0.3918020928743005   F   F   F
  0.6666666491116047  0.8333333838785535  0.0782072415719028   F   F   F
  0.6666666491116047  0.8333333838785535  0.3918020928743005   F   F   F
 
  