Fe3 Ge1 Te2                             
1.0
        7.8948173523         0.0000000000         0.0000000000
       -3.9474086761         6.8371123853         0.0000000000
        0.0000000000         0.0000000000        53.6046524048
   Te   Ge   Fe       
   31   16   48    
Selective dynamics
Cartesian
    1.973704    1.139519   10.048399 F F F
    1.973704    1.139519   26.852808 T T T
    0.000000    4.558075   10.048399 F F F
    0.000000    4.558075   26.852808 T T T
    5.921113    1.139519   10.048399 F F F
    5.921113    1.139519   26.852808 T T T
    3.947409    4.558075   10.048399 F F F
    3.947409    4.558075   26.852808 T T T
    0.000000    2.279037    6.751842 F F F
    0.000000    2.279037   23.556252 F F F
   -1.973704    5.697594    6.751842 F F F
   -1.973704    5.697594   23.556252 F F F
    3.947408    2.279037    6.751842 F F F
    3.947408    2.279037   23.556252 F F F
    1.973704    5.697594    6.751842 F F F
    1.973704    5.697594   23.556252 F F F
    0.000000    2.279037    1.656434 F F F
    0.000000    2.279037   18.452158 F F F
   -1.973704    5.697594    1.656434 F F F
   -1.973704    5.697594   18.452158 F F F
    3.947408    2.279037    1.656434 F F F
    3.947408    2.279037   18.452158 F F F
    1.973704    5.697594    1.656434 F F F
    1.973704    5.697594   18.452158 F F F
    1.973704    1.139519   15.152495 F F F
    0.000000    4.558075   15.152495 F F F
    0.000000    4.558075   31.948217 T T T
    5.921113    1.139519   15.152495 F F F
    5.921113    1.139519   31.948217 T T T
    3.947409    4.558075   15.152495 F F F
    3.947409    4.558075   31.948217 T T T
    0.000000    2.279037   12.601213 F F F
    0.000000    2.279037   29.401321 T T T
   -1.973704    5.697594   12.601213 F F F
   -1.973704    5.697594   29.401321 T T T
    3.947409    2.279037   12.601213 F F F
    3.947409    2.279037   29.401321 T T T
    1.973704    5.697594   12.601213 F F F
    1.973704    5.697594   29.401321 T T T
    1.973704    1.139519    4.203334 F F F
    1.973704    1.139519   21.003439 F F F
    0.000000    4.558074    4.203334 F F F
    0.000000    4.558074   21.003439 F F F
    5.921113    1.139519    4.203334 F F F
    5.921113    1.139519   21.003439 F F F
    3.947409    4.558074    4.203334 F F F
    3.947409    4.558074   21.003439 F F F
    0.000000    0.000000   11.368746 F F F
    0.000000    0.000000   28.172874 T T T 
   -1.973704    3.418556   11.368746 F F F 
   -1.973704    3.418556   28.172874 T T T
    3.947409    0.000000   11.368746 F F F
    3.947409    0.000000   28.172874 T T T
    1.973704    3.418556   11.368746 F F F
    1.973704    3.418556   28.172874 T T T
    0.000000    0.000000    5.431779 F F F
    0.000000    0.000000   22.235907 F F F
   -1.973704    3.418556    5.431779 F F F
   -1.973704    3.418556   22.235907 F F F
    3.947409    0.000000    5.431779 F F F
    3.947409    0.000000   22.235907 F F F
    1.973704    3.418556    5.431779 F F F
    1.973704    3.418556   22.235907 F F F
    0.000000    0.000000    2.966560 F F F
    0.000000    0.000000   19.769110 F F F
   -1.973704    3.418556    2.966560 F F F
   -1.973704    3.418556   19.769110 F F F
    3.947409    0.000000    2.966560 F F F
    3.947409    0.000000   19.769110 F F F
    1.973704    3.418556    2.966560 F F F
    1.973704    3.418556   19.769110 F F F
    0.000000    0.000000   13.835545 F F F
    0.000000    0.000000   30.638092 T T T 
   -1.973704    3.418556   13.835545 F F F
   -1.973704    3.418556   30.638092 T T T
    3.947409    0.000000   13.835545 F F F
    3.947409    0.000000   30.638092 T T T 
    1.973704    3.418556   13.835545 F F F
    1.973704    3.418556   30.638092 T T T
    1.973704    1.139519   12.602238 F F F
    1.973704    1.139519   29.412382 T T T 
    0.000000    4.558075   12.602238 F F F
    0.000000    4.558075   29.412382 T T T
    5.921113    1.139519   12.602238 F F F
    5.921113    1.139519   29.412382 T T T
    3.947409    4.558075   12.602238 F F F
    3.947409    4.558075   29.412382 T T T
    0.000000    2.279037    4.192272 F F F
    0.000000    2.279037   21.002415 F F F
   -1.973704    5.697594    4.192272 F F F
   -1.973704    5.697594   21.002415 F F F
    3.947408    2.279037    4.192272 F F F
    3.947408    2.279037   21.002415 F F F
    1.973704    5.697594    4.192272 F F F
    1.973704    5.697594   21.002415 F F F
    
