Fe3 Ge1 Te2 H1 Vacant surface           
   1.00000000000000     
     7.8948173522999996    0.0000000000000000    0.0000000000000000
    -3.9474086760999998    6.8371123853000002    0.0000000000000000
     0.0000000000000000    0.0000000000000000   53.6046524047999995
   Te   Ge   Fe   H 
    31    16    48     1
Selective dynamics
Direct
  0.3333333211018683  0.1666667025175741  0.1874538593426323   F   F   F
  0.3352756532095916  0.1705513667330205  0.5025232824772934   T   T   T
  0.3333333353377554  0.6666666706839592  0.1874538593426323   F   F   F
  0.3321652821303241  0.6650214199725851  0.5012439381110034   T   T   T
  0.8333333512292285  0.1666667025175741  0.1874538593426323   F   F   F
  0.8355652786985720  0.1711305574563535  0.5010700591687283   T   T   T
  0.8333333655917841  0.6666666706839592  0.1874538593426323   F   F   F
  0.8328561378148698  0.6650214199725851  0.5012439381110034   T   T   T
  0.1666666328222988  0.3333332656488111  0.1259562690755445   F   F   F
  0.1666666328222988  0.3333332656488111  0.4394441970281449   F   F   F
  0.1666667494293321  0.8333334081578059  0.1259562690755445   F   F   F
  0.1666667494293321  0.8333334081578059  0.4394441970281449   F   F   F
  0.6666665723839102  0.3333332656488111  0.1259562690755445   F   F   F
  0.6666665723839102  0.3333332656488111  0.4394441970281449   F   F   F
  0.6666666436447386  0.8333334081578059  0.1259562690755445   F   F   F
  0.6666666436447386  0.8333334081578059  0.4394441970281449   F   F   F
  0.1666666328222988  0.3333332656488111  0.0309009361256827   F   F   F
  0.1666666328222988  0.3333332656488111  0.3442268002160915   F   F   F
  0.1666667494293321  0.8333334081578059  0.0309009361256827   F   F   F
  0.1666667494293321  0.8333334081578059  0.3442268002160915   F   F   F
  0.6666665723839102  0.3333332656488111  0.0309009361256827   F   F   F
  0.6666665723839102  0.3333332656488111  0.3442268002160915   F   F   F
  0.6666666436447386  0.8333334081578059  0.0309009361256827   F   F   F
  0.6666666436447386  0.8333334081578059  0.3442268002160915   F   F   F
  0.3333333211018683  0.1666667025175741  0.2826712739329906   F   F   F
  0.3333333353377554  0.6666666706839592  0.2826712739329906   F   F   F
  0.3358229083024611  0.6743891194854342  0.5966591533867672   T   T   T
  0.8333333512292285  0.1666667025175741  0.2826712739329906   F   F   F
  0.8328001795889249  0.1656003592368964  0.5962825196061569   T   T   T
  0.8333333655917841  0.6666666706839592  0.2826712739329906   F   F   F
  0.8385662413018561  0.6743891194854342  0.5966591533867672   T   T   T
  0.1666666328222988  0.3333332656488111  0.2350768616097128   F   F   F
  0.1735630484106251  0.3340788424132718  0.5530325164477167   T   T   T
  0.1666667494293321  0.8333334081578059  0.2350768616097128   F   F   F
  0.1680115576388361  0.8360230245769558  0.5477830039605148   T   T   T
  0.6666666932226804  0.3333332656488111  0.2350768616097128   F   F   F
  0.6605158543988788  0.3340788424132718  0.5530325164477167   T   T   T
  0.6666666436447386  0.8333334081578059  0.2350768616097128   F   F   F
  0.6701405433259525  0.8402812075202332  0.5483333592565167   T   T   T
  0.3333333211018683  0.1666667025175741  0.0784136015519366   F   F   F
  0.3333333211018683  0.1666667025175741  0.3918211947610573   F   F   F
  0.3333332655714614  0.6666665311513640  0.0784136015519366   F   F   F
  0.3333332655714614  0.6666665311513640  0.3918211947610573   F   F   F
  0.8333333512292285  0.1666667025175741  0.0784136015519366   F   F   F
  0.8333333512292285  0.1666667025175741  0.3918211947610573   F   F   F
  0.8333333259718430  0.6666665311513640  0.0784136015519366   F   F   F
  0.8333333259718430  0.6666665311513640  0.3918211947610573   F   F   F
  0.0000000000000000  0.0000000000000000  0.2120850756040369   F   F   F
 -0.0025024493129003  0.0009284569402966  0.5254331423588151   T   T   T
  0.9999999991627035  0.4999999681663851  0.2120850756040369   F   F   F
 -0.0002650773596239  0.4994698151217300  0.5267838284335663   T   T   T
  0.5000000604003816  0.0000000000000000  0.2120850756040369   F   F   F
  0.5034309666409452  0.0009284569402966  0.5254331423588151   T   T   T
  0.4999999387243221  0.4999999681663851  0.2120850756040369   F   F   F
  0.5017679488148480  0.5035360184938534  0.5258381515691289   T   T   T
  0.0000000000000000  0.0000000000000000  0.1013303633979632   F   F   F
  0.0000000000000000  0.0000000000000000  0.4148129985637041   F   F   F
  0.9999999991627035  0.4999999681663851  0.1013303633979632   F   F   F
  0.9999999991627035  0.4999999681663851  0.4148129985637041   F   F   F
  0.5000000604003816  0.0000000000000000  0.1013303633979632   F   F   F
  0.5000000604003816  0.0000000000000000  0.4148129985637041   F   F   F
  0.4999999387243221  0.4999999681663851  0.1013303633979632   F   F   F
  0.4999999387243221  0.4999999681663851  0.4148129985637041   F   F   F
  0.0000000000000000  0.0000000000000000  0.0553414629871654   F   F   F
  0.0000000000000000  0.0000000000000000  0.3687946631331940   F   F   F
  0.9999999991627035  0.4999999681663851  0.0553414629871654   F   F   F
  0.9999999991627035  0.4999999681663851  0.3687946631331940   F   F   F
  0.5000000604003816  0.0000000000000000  0.0553414629871654   F   F   F
  0.5000000604003816  0.0000000000000000  0.3687946631331940   F   F   F
  0.4999999387243221  0.4999999681663851  0.0553414629871654   F   F   F
  0.4999999387243221  0.4999999681663851  0.3687946631331940   F   F   F
  0.0000000000000000  0.0000000000000000  0.2581034288128521   F   F   F
 -0.0062708869102307 -0.0025767109795367  0.5708646751381485   T   T   T
  0.9999999991627035  0.4999999681663851  0.2581034288128521   F   F   F
  0.0017694888383369  0.5035389475176523  0.5726155729983229   T   T   T
  0.5000000604003816  0.0000000000000000  0.2581034288128521   F   F   F
  0.5036942967379515 -0.0025767109795367  0.5708646751381485   T   T   T
  0.4999999387243221  0.4999999681663851  0.2581034288128521   F   F   F
  0.5146308294866739  0.5292616589990058  0.5710180592356370   T   T   T
  0.3333333211018683  0.1666667025175741  0.2350959690183814   F   F   F
  0.3327894970914802  0.1655790544967979  0.5501834877253784   T   T   T
  0.3333333353377554  0.6666666706839592  0.2350959690183814   F   F   F
  0.3302456655021673  0.6668616065434831  0.5484535739322492   T   T   T
  0.8333333512292285  0.1666667025175741  0.2350959690183814   F   F   F
  0.8390462466928884  0.1780924934450219  0.5484116853661495   T   T   T
  0.8333333655917841  0.6666666706839592  0.2350959690183814   F   F   F
  0.8366159108675789  0.6668616065434831  0.5484535739322492   T   T   T
  0.1666666328222988  0.3333332656488111  0.0782072361432711   F   F   F
  0.1666666328222988  0.3333332656488111  0.3918020873337369   F   F   F
  0.1666667494293321  0.8333334081578059  0.0782072361432711   F   F   F
  0.1666667494293321  0.8333334081578059  0.3918020873337369   F   F   F
  0.6666665723839102  0.3333332656488111  0.0782072361432711   F   F   F
  0.6666665723839102  0.3333332656488111  0.3918020873337369   F   F   F
  0.6666666436447386  0.8333334081578059  0.0782072361432711   F   F   F
  0.6666666436447386  0.8333334081578059  0.3918020873337369   F   F   F
  0.2841285544545564  0.0682571945556673  0.5779626510749079   T   T   T
 
  