Fe3 Ge1 Te2 H1 Vacant surface                          
1.0
        7.8948173523         0.0000000000         0.0000000000
       -3.9474086761         6.8371123853         0.0000000000
        0.0000000000         0.0000000000        53.6046524048
   Te   Ge   Fe    H
   31   16   48    1
Selective dynamics
Cartesian
     1.973704100         1.139518976        10.048398972 F F F
     1.973704100         1.139518976        26.859247208 T T T
     0.000000000         4.558074951        10.048398972 F F F
    -0.044291735         4.532503605        26.823196411 T T T
     5.921113014         1.139518976        10.048398972 F F F
     5.921113014         1.190662503        26.823196411 T T T
     3.947408915         4.558074951        10.048398972 F F F
     3.991700411         4.532503605        26.823196411 T T T
     0.000000000         2.279036999         6.751842022 F F F
     0.000000000         2.279036999        23.556253433 F F F
    -1.973703980         5.697594166         6.751842022 F F F
    -1.973703980         5.697594166        23.556253433 F F F
     3.947408199         2.279036999         6.751842022 F F F
     3.947408199         2.279036999        23.556253433 F F F
     1.973703861         5.697594166         6.751842022 F F F
     1.973703861         5.697594166        23.556253433 F F F
     0.000000000         2.279036999         1.656433940 F F F
     0.000000000         2.279036999        18.452157974 F F F
    -1.973703980         5.697594166         1.656433940 F F F
    -1.973703980         5.697594166        18.452157974 F F F
     3.947408199         2.279036999         1.656433940 F F F
     3.947408199         2.279036999        18.452157974 F F F
     1.973703861         5.697594166         1.656433940 F F F
     1.973703861         5.697594166        18.452157974 F F F
     1.973704100         1.139518976        15.152495384 F F F
     0.000000000         4.558074951        15.152495384 F F F
     0.029261112         4.574968815        31.954469681 T T T
     5.921113014         1.139518976        15.152495384 F F F
     5.921113014         1.105731130        31.954469681 T T T
     3.947408915         4.558074951        15.152495384 F F F
     3.918147802         4.574968815        31.954469681 T T T
     0.000000000         2.279036999        12.601213455 F F F
     0.066509247         2.240637779        29.752468109 T T T
    -1.973703980         5.697594166        12.601213455 F F F
    -1.973703980         5.774392128        29.752468109 T T T
     3.947409153         2.279036999        12.601213455 F F F
     3.880899906         2.240637779        29.752468109 T T T
     1.973703861         5.697594166        12.601213455 F F F
     1.973703861         5.697594166        29.280300140 T T T
     1.973704100         1.139518976         4.203333855 F F F
     1.973704100         1.139518976        21.003438950 F F F
     0.000000000         4.558073997         4.203333855 F F F
     0.000000000         4.558073997        21.003438950 F F F
     5.921113014         1.139518976         4.203333855 F F F
     5.921113014         1.139518976        21.003438950 F F F
     3.947409153         4.558073997         4.203333855 F F F
     3.947409153         4.558073997        21.003438950 F F F
     0.000000000         0.000000000        11.368746758 F F F
     3.917455196         6.819818974        28.103738785 T T T
    -1.973704219         3.418555975        11.368746758 F F F
    -1.973704219         3.418555975        28.225929260 T T T
     3.947409153         0.000000000        11.368746758 F F F
     0.029953957         6.819818974        28.103738785 T T T
     1.973703980         3.418555975        11.368746758 F F F
     1.973703861         3.453143597        28.103738785 T T T
     0.000000000         0.000000000         5.431778908 F F F
     0.000000000         0.000000000        22.235906601 F F F
    -1.973704219         3.418555975         5.431778908 F F F
    -1.973704219         3.418555975        22.235906601 F F F
     3.947409153         0.000000000         5.431778908 F F F
     3.947409153         0.000000000        22.235906601 F F F
     1.973703980         3.418555975         5.431778908 F F F
     1.973703980         3.418555975        22.235906601 F F F
     0.000000000         0.000000000         2.966559887 F F F
     0.000000000         0.000000000        19.769109726 F F F
    -1.973704219         3.418555975         2.966559887 F F F
    -1.973704219         3.418555975        19.769109726 F F F
     3.947409153         0.000000000         2.966559887 F F F
     3.947409153         0.000000000        19.769109726 F F F
     1.973703980         3.418555975         2.966559887 F F F
     1.973703980         3.418555975        19.769109726 F F F
     0.000000000         0.000000000        13.835544586 F F F
     3.800344467         6.752204418        30.525121689 T T T
    -1.973704219         3.418555975        13.835544586 F F F
    -1.973704219         3.418555975        30.669004440 T T T
     3.947409153         0.000000000        13.835544586 F F F
     0.147065163         6.752204418        30.525121689 T T T
     1.973703980         3.418555975        13.835544586 F F F
     1.973704338         3.588371754        30.525121689 T T T
     1.973704100         1.139518976        12.602237701 F F F
     1.973704100         1.139518976        29.310529709 T T T
     0.000000000         4.558074951        12.602237701 F F F
    -0.064899206         4.520605564        29.323978424 T T T
     5.921113014         1.139518976        12.602237701 F F F
     5.921113014         1.214457989        29.323978424 T T T
     3.947408915         4.558074951        12.602237701 F F F
     4.012307644         4.520605564        29.323978424 T T T
     0.000000000         2.279036999         4.192271709 F F F
     0.000000000         2.279036999        21.002414703 F F F
    -1.973703980         5.697594166         4.192271709 F F F
    -1.973703980         5.697594166        21.002414703 F F F
     3.947408199         2.279036999         4.192271709 F F F
     3.947408199         2.279036999        21.002414703 F F F
     1.973703861         5.697594166         4.192271709 F F F
     1.973703861         5.697594166        21.002414703 F F F
	 1.973704000         0.955036000        31.638092000 T T T
	 