Fe3 Ge1 Te2 O1 H1                       
   1.00000000000000     
     7.8948173522999996    0.0000000000000000    0.0000000000000000
    -3.9474086760999998    6.8371123853000002    0.0000000000000000
     0.0000000000000000    0.0000000000000000   53.6046524047999995
   Te   Ge   Fe   O    H 
    31    16    48     1     1
Selective dynamics
Direct
  0.3333333211018683  0.1666667025175741  0.1874538593426323   F   F   F
  0.3333333211018683  0.1666667025175741  0.4971383022637288   T   T   T
  0.3333333353377554  0.6666666706839592  0.1874538593426323   F   F   F
  0.3312052215989718  0.6656026024021564  0.5012811842345379   T   T   T
  0.8333333512292285  0.1666667025175741  0.1874538593426323   F   F   F
  0.8343974020329092  0.1687948041248921  0.5012811842345379   T   T   T
  0.8333333655917841  0.6666666706839592  0.1874538593426323   F   F   F
  0.8343974110487515  0.6656026024021564  0.5012811842345379   T   T   T
  0.1666666328222988  0.3333332656488111  0.1259562690755445   F   F   F
  0.1666666328222988  0.3333332656488111  0.4394441970281449   F   F   F
  0.1666667494293321  0.8333334081578059  0.1259562690755445   F   F   F
  0.1666667494293321  0.8333334081578059  0.4394441970281449   F   F   F
  0.6666665723839102  0.3333332656488111  0.1259562690755445   F   F   F
  0.6666665723839102  0.3333332656488111  0.4394441970281449   F   F   F
  0.6666666436447386  0.8333334081578059  0.1259562690755445   F   F   F
  0.6666666436447386  0.8333334081578059  0.4394441970281449   F   F   F
  0.1666666328222988  0.3333332656488111  0.0309009361256827   F   F   F
  0.1666666328222988  0.3333332656488111  0.3442268002160915   F   F   F
  0.1666667494293321  0.8333334081578059  0.0309009361256827   F   F   F
  0.1666667494293321  0.8333334081578059  0.3442268002160915   F   F   F
  0.6666665723839102  0.3333332656488111  0.0309009361256827   F   F   F
  0.6666665723839102  0.3333332656488111  0.3442268002160915   F   F   F
  0.6666666436447386  0.8333334081578059  0.0309009361256827   F   F   F
  0.6666666436447386  0.8333334081578059  0.3442268002160915   F   F   F
  0.3333333211018683  0.1666667025175741  0.2826712739329906   F   F   F
  0.3333333353377554  0.6666666706839592  0.2826712739329906   F   F   F
  0.3329977645853774  0.6664988448047953  0.5959244569373002   T   T   T
  0.8333333512292285  0.1666667025175741  0.2826712739329906   F   F   F
  0.8335011422983851  0.1670022846558667  0.5959244569373002   T   T   T
  0.8333333655917841  0.6666666706839592  0.2826712739329906   F   F   F
  0.8335011708843720  0.6664988448047953  0.5959244569373002   T   T   T
  0.1666666328222988  0.3333332656488111  0.2350768616097128   F   F   F
  0.1641243809241430  0.3358755137178946  0.5472057111456983   T   T   T
  0.1666667494293321  0.8333334081578059  0.2350768616097128   F   F   F
  0.1641244664040186  0.8282488421070865  0.5472057111456983   T   T   T
  0.6666666932226804  0.3333332656488111  0.2350768616097128   F   F   F
  0.6717512233362301  0.3358755137178946  0.5472057111456983   T   T   T
  0.6666666436447386  0.8333334081578059  0.2350768616097128   F   F   F
  0.6666666436447386  0.8333334081578059  0.5477774610763856   T   T   T
  0.3333333211018683  0.1666667025175741  0.0784136015519366   F   F   F
  0.3333333211018683  0.1666667025175741  0.3918211947610573   F   F   F
  0.3333332655714614  0.6666665311513640  0.0784136015519366   F   F   F
  0.3333332655714614  0.6666665311513640  0.3918211947610573   F   F   F
  0.8333333512292285  0.1666667025175741  0.0784136015519366   F   F   F
  0.8333333512292285  0.1666667025175741  0.3918211947610573   F   F   F
  0.8333333259718430  0.6666665311513640  0.0784136015519366   F   F   F
  0.8333333259718430  0.6666665311513640  0.3918211947610573   F   F   F
  0.0000000000000000  0.0000000000000000  0.2120850756040369   F   F   F
  0.0032329619415499  0.0016164809431349  0.5254210246633039   T   T   T
  0.9999999991627035  0.4999999681663851  0.2120850756040369   F   F   F
  0.9999999991627035  0.4999999681663851  0.5266398267988748   T   T   T
  0.5000000604003816  0.0000000000000000  0.2120850756040369   F   F   F
  0.4983835591354757  0.0016164809431349  0.5254210246633039   T   T   T
  0.4999999387243221  0.4999999681663851  0.2120850756040369   F   F   F
  0.4983834744549251  0.4967670396275274  0.5254210246633039   T   T   T
  0.0000000000000000  0.0000000000000000  0.1013303633979632   F   F   F
  0.0000000000000000  0.0000000000000000  0.4148129985637041   F   F   F
  0.9999999991627035  0.4999999681663851  0.1013303633979632   F   F   F
  0.9999999991627035  0.4999999681663851  0.4148129985637041   F   F   F
  0.5000000604003816  0.0000000000000000  0.1013303633979632   F   F   F
  0.5000000604003816  0.0000000000000000  0.4148129985637041   F   F   F
  0.4999999387243221  0.4999999681663851  0.1013303633979632   F   F   F
  0.4999999387243221  0.4999999681663851  0.4148129985637041   F   F   F
  0.0000000000000000  0.0000000000000000  0.0553414629871654   F   F   F
  0.0000000000000000  0.0000000000000000  0.3687946631331940   F   F   F
  0.9999999991627035  0.4999999681663851  0.0553414629871654   F   F   F
  0.9999999991627035  0.4999999681663851  0.3687946631331940   F   F   F
  0.5000000604003816  0.0000000000000000  0.0553414629871654   F   F   F
  0.5000000604003816  0.0000000000000000  0.3687946631331940   F   F   F
  0.4999999387243221  0.4999999681663851  0.0553414629871654   F   F   F
  0.4999999387243221  0.4999999681663851  0.3687946631331940   F   F   F
  0.0000000000000000  0.0000000000000000  0.2581034288128521   F   F   F
  0.0618119976528622  0.0309059975592385  0.5719401007142966   T   T   T
  0.9999999991627035  0.4999999681663851  0.2581034288128521   F   F   F
  0.9999999991627035  0.4999999681663851  0.5726110416127557   T   T   T
  0.5000000604003816  0.0000000000000000  0.2581034288128521   F   F   F
  0.4690940376334246  0.0309059975592385  0.5719401007142966   T   T   T
  0.4999999387243221  0.4999999681663851  0.2581034288128521   F   F   F
  0.4690939304799562  0.4381879818235445  0.5719401007142966   T   T   T
  0.3333333211018683  0.1666667025175741  0.2350959690183814   F   F   F
  0.3333333211018683  0.1666667025175741  0.5422963171660079   T   T   T
  0.3333333353377554  0.6666666706839592  0.2350959690183814   F   F   F
  0.3405288063520312  0.6702644521545186  0.5499902983464732   T   T   T
  0.8333333512292285  0.1666667025175741  0.2350959690183814   F   F   F
  0.8297356133443482  0.1594712267477565  0.5499902983464732   T   T   T
  0.8333333655917841  0.6666666706839592  0.2350959690183814   F   F   F
  0.8297356457750179  0.6702644521545186  0.5499902983464732   T   T   T
  0.1666666328222988  0.3333332656488111  0.0782072361432711   F   F   F
  0.1666666328222988  0.3333332656488111  0.3918020873337369   F   F   F
  0.1666667494293321  0.8333334081578059  0.0782072361432711   F   F   F
  0.1666667494293321  0.8333334081578059  0.3918020873337369   F   F   F
  0.6666665723839102  0.3333332656488111  0.0782072361432711   F   F   F
  0.6666665723839102  0.3333332656488111  0.3918020873337369   F   F   F
  0.6666666436447386  0.8333334081578059  0.0782072361432711   F   F   F
  0.6666666436447386  0.8333334081578059  0.3918020873337369   F   F   F
  0.3333333211018683  0.1666667025175741  0.5919910342623670   T   T   T
  0.3333333211018683  0.1666667025175741  0.6101906294007303   T   T   T
 
  