Fe3 Ge1 Te2 O1 H1                             
1.0
        7.8948173523         0.0000000000         0.0000000000
       -3.9474086761         6.8371123853         0.0000000000
        0.0000000000         0.0000000000        53.6046524048
   Te   Ge   Fe    O    H
   31   16   48    1    1
Selective Dynamics
Cartesian
     1.973704100         1.139518976        10.048398972 F F F
     1.973704100         1.139518976        26.800123215 T T T
     0.000000000         4.558074951        10.048398972 F F F
     0.012993336         4.565576553        26.880222321 T T T
     5.921113014         1.139518976        10.048398972 F F F
     5.921113014         1.124515533        26.880222321 T T T
     3.947408915         4.558074951        10.048398972 F F F
     3.934415579         4.565576553        26.880222321 T T T
     0.000000000         2.279036999         6.751842022 F F F
     0.000000000         2.279036999        23.556253433 F F F
    -1.973703980         5.697594166         6.751842022 F F F
    -1.973703980         5.697594166        23.556253433 F F F
     3.947408199         2.279036999         6.751842022 F F F
     3.947408199         2.279036999        23.556253433 F F F
     1.973703861         5.697594166         6.751842022 F F F
     1.973703861         5.697594166        23.556253433 F F F
     0.000000000         2.279036999         1.656433940 F F F
     0.000000000         2.279036999        18.452157974 F F F
    -1.973703980         5.697594166         1.656433940 F F F
    -1.973703980         5.697594166        18.452157974 F F F
     3.947408199         2.279036999         1.656433940 F F F
     3.947408199         2.279036999        18.452157974 F F F
     1.973703861         5.697594166         1.656433940 F F F
     1.973703861         5.697594166        18.452157974 F F F
     1.973704100         1.139518976        15.152495384 F F F
     0.000000000         4.558074951        15.152495384 F F F
     0.004836321         4.560866833        31.973754883 T T T
     5.921113014         1.139518976        15.152495384 F F F
     5.921113014         1.133934736        31.973754883 T T T
     3.947408915         4.558074951        15.152495384 F F F
     3.942573071         4.560866833        31.973754883 T T T
     0.000000000         2.279036999        12.601213455 F F F
    -0.044451952         2.304701328        29.246337891 T T T
    -1.973703980         5.697594166        12.601213455 F F F
    -1.973703980         5.646265030        29.246337891 T T T
     3.947409153         2.279036999        12.601213455 F F F
     3.991861343         2.304701328        29.246337891 T T T
     1.973703861         5.697594166        12.601213455 F F F
     1.973703861         5.697594166        29.380706787 T T T
     1.973704100         1.139518976         4.203333855 F F F
     1.973704100         1.139518976        21.003438950 F F F
     0.000000000         4.558073997         4.203333855 F F F
     0.000000000         4.558073997        21.003438950 F F F
     5.921113014         1.139518976         4.203333855 F F F
     5.921113014         1.139518976        21.003438950 F F F
     3.947409153         4.558073997         4.203333855 F F F
     3.947409153         4.558073997        21.003438950 F F F
     0.000000000         0.000000000        11.368746758 F F F
     0.028560240         0.016489262        28.229082108 T T T
    -1.973704219         3.418555975        11.368746758 F F F
    -1.973704219         3.418555975        28.194831848 T T T
     3.947409153         0.000000000        11.368746758 F F F
     3.918848753         0.016489262        28.229082108 T T T
     1.973703980         3.418555975        11.368746758 F F F
     1.973703980         3.385577679        28.229082108 T T T
     0.000000000         0.000000000         5.431778908 F F F
     0.000000000         0.000000000        22.235906601 F F F
    -1.973704219         3.418555975         5.431778908 F F F
    -1.973704219         3.418555975        22.235906601 F F F
     3.947409153         0.000000000         5.431778908 F F F
     3.947409153         0.000000000        22.235906601 F F F
     1.973703980         3.418555975         5.431778908 F F F
     1.973703980         3.418555975        22.235906601 F F F
     0.000000000         0.000000000         2.966559887 F F F
     0.000000000         0.000000000        19.769109726 F F F
    -1.973704219         3.418555975         2.966559887 F F F
    -1.973704219         3.418555975        19.769109726 F F F
     3.947409153         0.000000000         2.966559887 F F F
     3.947409153         0.000000000        19.769109726 F F F
     1.973703980         3.418555975         2.966559887 F F F
     1.973703980         3.418555975        19.769109726 F F F
     0.000000000         0.000000000        13.835544586 F F F
     0.217700064         0.125689179        30.712549210 T T T
    -1.973704219         3.418555975        13.835544586 F F F
    -1.973704219         3.418555975        30.677017212 T T T
     3.947409153         0.000000000        13.835544586 F F F
     3.729708910         0.125689179        30.712549210 T T T
     1.973703980         3.418555975        13.835544586 F F F
     1.973703861         3.167177677        30.712549210 T T T
     1.973704100         1.139518976        12.602237701 F F F
     1.973704100         1.139518976        29.432205200 T T T
     0.000000000         4.558074951        12.602237701 F F F
     0.024155378         4.572021484        29.503873825 T T T
     5.921113014         1.139518976        12.602237701 F F F
     5.921113014         1.111626506        29.503873825 T T T
     3.947408915         4.558074951        12.602237701 F F F
     3.923253298         4.572021484        29.503873825 T T T
     0.000000000         2.279036999         4.192271709 F F F
     0.000000000         2.279036999        21.002414703 F F F
    -1.973703980         5.697594166         4.192271709 F F F
    -1.973703980         5.697594166        21.002414703 F F F
     3.947408199         2.279036999         4.192271709 F F F
     3.947408199         2.279036999        21.002414703 F F F
     1.973703861         5.697594166         4.192271709 F F F
     1.973703861         5.697594166        21.002414703 F F F
     1.973704100         1.139518976        31.257320404 T T T
	 1.973704100         1.139518976        32.227320404 T T T
	 