Fe3 Ge1 Te2 H1                          
   1.00000000000000     
     7.8948173522999996    0.0000000000000000    0.0000000000000000
    -3.9474086760999998    6.8371123853000002    0.0000000000000000
     0.0000000000000000    0.0000000000000000   53.6046524047999995
   Te   Ge   Fe   H 
    32    16    48     1
Direct
  0.3333333101904614  0.1666667060278257  0.1874545849532158
  0.3333333101904614  0.1666667060278257  0.5001935900874188
  0.3333335020565322  0.6666667594184222  0.1874527870709394
  0.3327371434779762  0.6663685801291441  0.5010107564322571
  0.8333332696433512  0.1666665428924368  0.1874527870709394
  0.8336314489326293  0.1672629014709928  0.5010107564322571
  0.8333332983740259  0.6666667594184222  0.1874527870709394
  0.8336314776633040  0.6663685801291441  0.5010107564322571
  0.1666671914475158  0.3333327072429882  0.1259620595162359
  0.1665517141447144  0.3334481845457897  0.4394139392765047
  0.1666672933084853  0.8333345009827295  0.1259620595162359
  0.1665518160056838  0.8331035463771267  0.4394139392765047
  0.6666654301464592  0.3333327072429882  0.1259620595162359
  0.6668963847520620  0.3334481845457897  0.4394139392765047
  0.6666666491116047  0.8333333838785535  0.1259614735150985
  0.6666666491116047  0.8333333838785535  0.4394052190872649
  0.1666681029722390  0.3333317957182650  0.0308519202787852
  0.1666659894680267  0.3333339092224775  0.3442437898715678
  0.1666682048332084  0.8333363240321759  0.0308519202787852
  0.1666660913289962  0.8333320970237511  0.3442437898715678
  0.6666636070970128  0.3333317957182650  0.0308519202787852
  0.6666678341054376  0.3333339092224775  0.3442437898715678
  0.6666666491116047  0.8333333838785535  0.0308524224218577
  0.6666666491116047  0.8333333838785535  0.3442283920551600
  0.3333333101904614  0.1666667060278257  0.2826799123640518
  0.3333333101904614  0.1666667060278257  0.5962136312088985
  0.3333418153830985  0.6666709160817053  0.2826787795512126
  0.3329083983352805  0.6664542075577964  0.5961377562404861
  0.8333291129800681  0.1666582295658705  0.2826787795512126
  0.8335458215039770  0.1670916466136886  0.5961377562404861
  0.8333291417107428  0.6666709160817053  0.2826787795512126
  0.8335458502346518  0.6664542075577964  0.5961377562404861
  0.1666697662313470  0.3333301324591572  0.2350495147296856
  0.1667923386231385  0.3332075600673656  0.5483901738802867
  0.1666698680923164  0.8333396505503917  0.2350495147296856
  0.1667924404841079  0.8335847953339749  0.5483901738802867
  0.6666604072441668  0.3333301324591572  0.2350495147296856
  0.6664152624605836  0.3332075600673656  0.5483901738802867
  0.6666666491116047  0.8333333838785535  0.2350494540938143
  0.6666666491116047  0.8333333838785535  0.5486767054608594
  0.3333333101904614  0.1666667060278257  0.0785119972642962
  0.3333333101904614  0.1666667060278257  0.3918185239108480
  0.3333494018332844  0.6666745996113599  0.0785120735858799
  0.3333301267839102  0.6666649620866726  0.3918140140713143
  0.8333252831898312  0.1666505699853969  0.0785120735858799
  0.8333349207145185  0.1666698450347713  0.3918140140713143
  0.8333252387902184  0.6666745996113599  0.0785120735858799
  0.8333348763149057  0.6666649620866726  0.3918140140713143
 -0.0000023407473381 -0.0000011703736691  0.2120818648341556
 -0.0016596784464437 -0.0008298392232219  0.5254898691450719
  0.0000000287306818  0.4999999718229020  0.2120821081188144
  0.0000000287306818  0.4999999718229020  0.5256178322364349
  0.5000012113942534 -0.0000011703736691  0.2120818648341556
  0.5008298802438061 -0.0008298392232219  0.5254898691450719
  0.5000011134595583  0.5000023125702402  0.2120818648341556
  0.5008297823091111  0.5016596502693458  0.5254898691450719
 -0.0000022490174712 -0.0000011245087356  0.1013149205814725
  0.0000325157338829  0.0000162578669414  0.4148548283015044
  0.0000000287306818  0.4999999718229020  0.1013156249387504
  0.0000000287306818  0.4999999718229020  0.4148201608734891
  0.5000011655293197 -0.0000011245087356  0.1013149205814725
  0.4999837831536428  0.0000162578669414  0.4148548283015044
  0.5000010675946247  0.5000022208403733  0.1013149205814725
  0.4999836852189478  0.4999674560890191  0.4148548283015044
 -0.0000032842548448 -0.0000016421274224  0.0553075365879362
 -0.0000173271645891 -0.0000086635822945  0.3688211639510208
  0.0000000287306818  0.4999999718229020  0.0553078687249300
  0.0000000287306818  0.4999999718229020  0.3687868874329010
  0.5000016831480066 -0.0000016421274224  0.0553075365879362
  0.5000087046028788 -0.0000086635822945  0.3688211639510208
  0.5000015852133116  0.5000032560777468  0.0553075365879362
  0.5000086066681838  0.5000172989874910  0.3688211639510208
  0.0000020696684648  0.0000010348342324  0.2580990629417327
  0.0074241126542779  0.0037120563271390  0.5719613580091966
  0.0000000287306818  0.4999999718229020  0.2580993627840815
  0.0000000287306818  0.4999999718229020  0.5714513408376753
  0.4999990061863518  0.0000010348342324  0.2580990629417327
  0.4962879846934454  0.0037120563271390  0.5719613580091966
  0.4999989082516568  0.4999979021544373  0.2580990629417327
  0.4962878867587504  0.4925758591686241  0.5719613580091966
  0.3333333101904614  0.1666667060278257  0.2350977725307869
  0.3333333101904614  0.1666667060278257  0.5461643524920575
  0.3333326302358944  0.6666663235081034  0.2350999252260497
  0.3337125374994906  0.6668562771399015  0.5488751124189133
  0.8333337055536700  0.1666674147130745  0.2350999252260497
  0.8331437519218720  0.1662875074494783  0.5488751124189133
  0.8333337342843448  0.6666663235081034  0.2350999252260497
  0.8331437806525467  0.6668562771399015  0.5488751124189133
  0.1666700047139904  0.3333298939765136  0.0781557009106606
  0.1666867010913156  0.3333131975991885  0.3918275283206909
  0.1666701065749599  0.8333401275156788  0.0781557009106606
  0.1666868029522850  0.8333735202703290  0.3918275283206909
  0.6666598036135100  0.3333298939765136  0.0781557009106606
  0.6666264108588598  0.3333131975991885  0.3918275283206909
  0.6666666491116047  0.8333333838785535  0.0781558133018426
  0.6666666491116047  0.8333333838785535  0.3918411173740962
  0.3333333101904614  0.1666667060278257  0.6289538538027654
