Fe3 Ge1 Te2 H3                          
   1.00000000000000     
     7.8948173522999996    0.0000000000000000    0.0000000000000000
    -3.9474086760999998    6.8371123853000002    0.0000000000000000
     0.0000000000000000    0.0000000000000000   53.6046524047999995
   Te   Ge   Fe   H 
    32    16    48     3
Direct
  0.3333350867690288  0.1666649294492583  0.1874518924140215
  0.3330750348637819  0.1669249813545052  0.5003658084189279
  0.3333351154997106  0.6666702310078625  0.1874518924140215
  0.3330750635944638  0.6661501271973688  0.5003658084189279
  0.8333297980539109  0.1666649294492583  0.1874518924140215
  0.8338499018644047  0.1669249813545052  0.5003658084189279
  0.8333333799417204  0.6666666778507278  0.1874514179528623
  0.8333333799417204  0.6666666778507278  0.5012759717152615
  0.1666666328954278  0.3333332657950763  0.1259457282254101
  0.1666666328954278  0.3333332657950763  0.4394029294696961
  0.1666676343425554  0.8333338336716327  0.1259453309743352
  0.1667126941341804  0.8333563635674450  0.4394053172437690
  0.6666660974575560  0.3333323662089179  0.1259453309743352
  0.6666435675617437  0.3332873064172931  0.4394053172437690
  0.6666661993185254  0.8333338336716327  0.1259453309743352
  0.6666436694227131  0.8333563635674450  0.4394053172437690
  0.1666666328954278  0.3333332657950763  0.0308515016365074
  0.1666666328954278  0.3333332657950763  0.3442344556984299
  0.1666688468797794  0.8333344399402447  0.0308518882146598
  0.1666608729792838  0.8333304529899968  0.3442311452069091
  0.6666654911889440  0.3333311536716942  0.0308518882146598
  0.6666694781391920  0.3333391275721898  0.3442311452069091
  0.6666655930499135  0.8333344399402447  0.0308518882146598
  0.6666695800001614  0.8333304529899968  0.3442311452069091
  0.3333307985121219  0.1666692177061652  0.2826811641250244
  0.3333068156275129  0.1666932005907742  0.5957997280990570
  0.3333308272428037  0.6666616544940487  0.2826811641250244
  0.3333068443581947  0.6666136887248307  0.5957997280990570
  0.8333383745677247  0.1666692177061652  0.2826811641250244
  0.8333863403369427  0.1666932005907742  0.5957997280990570
  0.8333333799417204  0.6666666778507278  0.2826808056573071
  0.8333333799417204  0.6666666778507278  0.5963549874479329
  0.1666666328954278  0.3333332657950763  0.2350579403408359
  0.1666666328954278  0.3333332657950763  0.5480591956916210
  0.1666711350775077  0.8333355840391088  0.2350583059120307
  0.1664071705589411  0.8332036017798253  0.5484287544976724
  0.6666644737554497  0.3333288654739658  0.2350583059120307
  0.6667964560147331  0.3335928299925323  0.5484287544976724
  0.6666644489510494  0.8333355840391088  0.2350583059120307
  0.6667964312103328  0.8332036017798253  0.5484287544976724
  0.3333371818278244  0.1666628343904629  0.0785252530488725
  0.3333307278545078  0.1666692883637793  0.3917835937848546
  0.3333371374282186  0.6666742748648714  0.0785252530488725
  0.3333306834549021  0.6666613669182383  0.3917835937848546
  0.8333256079363197  0.1666628343904629  0.0785252530488725
  0.8333385158829528  0.1666692883637793  0.3917835937848546
  0.8333333068114328  0.6666665315901454  0.0785245751552826
  0.8333333068114328  0.6666665315901454  0.3917879482989249
 -0.0000003085516576 -0.0000006171033152  0.2120770669512722
 -0.0010399364535223 -0.0020798729070446  0.5255527041507602
 -0.0000002798209758  0.5000002803745596  0.2120770669512722
 -0.0010399077228405  0.5010399082764242  0.5255527041507602
  0.5000000410205843  0.0000000000000000  0.2120765314859997
  0.5000000410205843  0.0000000000000000  0.5257113492319966
  0.5000005601892045  0.5000002803745596  0.2120770669512722
  0.5020798159929337  0.5010399082764242  0.5255527041507602
 -0.0000000845140293 -0.0000001690280587  0.1013070265170815
  0.0000095716126984  0.0000191432253969  0.4148704428827035
 -0.0000000557833475  0.5000000563369315  0.1013070265170815
  0.0000096003433803  0.4999904002102035  0.4148704428827035
  0.5000000410205843  0.0000000000000000  0.1013077454266920
  0.5000000410205843  0.0000000000000000  0.4148547346888491
  0.5000001121139480  0.5000000563369315  0.1013070265170815
  0.4999807998604924  0.4999904002102035  0.4148704428827035
 -0.0000005827754051 -0.0000011655508103  0.0553010900735784
 -0.0000029581097124 -0.0000059162194248  0.3688289898503054
 -0.0000005540447233  0.5000005545983072  0.0553010900735784
 -0.0000029293790305  0.5000029299326145  0.3688289898503054
  0.5000000410205843  0.0000000000000000  0.0553030161755042
  0.5000000410205843  0.0000000000000000  0.3688244831827428
  0.5000011086366996  0.5000005545983072  0.0553010900735784
  0.5000058593053139  0.5000029299326145  0.3688289898503054
  0.0000017753286673  0.0000035506573346  0.2580902936227015
  0.0034828525972225  0.0069657051944451  0.5725516305009974
  0.0000018040593491  0.4999981964942346  0.2580902936227015
  0.0034828813279044  0.4965171192256794  0.5725516305009974
  0.5000000410205843  0.0000000000000000  0.2580916716177461
  0.5000000410205843  0.0000000000000000  0.5737324576672260
  0.4999963924285547  0.4999981964942346  0.2580902936227015
  0.4930342378914443  0.4965171192256794  0.5725516305009974
  0.3333308358023728  0.1666691804159144  0.2350864657397345
  0.3337715177466316  0.1662284984716555  0.5467401637744165
  0.3333308645330546  0.6666617290745505  0.2350864657397345
  0.3337715464773134  0.6675430929630681  0.5467401637744165
  0.8333382999872230  0.1666691804159144  0.2350864657397345
  0.8324569360987053  0.1662284984716555  0.5467401637744165
  0.8333333799417204  0.6666666778507278  0.2350861545728577
  0.8333333799417204  0.6666666778507278  0.5493626211826103
  0.1666666328954278  0.3333332657950763  0.0781446407715452
  0.1666666328954278  0.3333332657950763  0.3918661395633443
  0.1666741687774692  0.8333371008890894  0.0781450050035721
  0.1666767758011479  0.8333384044009288  0.3918685711392885
  0.6666628302400993  0.3333258317740044  0.0781450050035721
  0.6666615267282600  0.3333232247503256  0.3918685711392885
  0.6666629321010688  0.8333371008890894  0.0781450050035721
  0.6666616285892294  0.8333384044009288  0.3918685711392885
  0.3338328731126270  0.1661671431056601  0.6286109646376401
  0.8323342253667145  0.1661671431056601  0.6286109646376401
  0.3338329018433088  0.6676658036950589  0.6286109646376401
 
  