Fe3 Ge1 Te2                             
   1.00000000000000     
     7.8948173522999996    0.0000000000000000    0.0000000000000000
    -3.9474086760999998    6.8371123853000002    0.0000000000000000
     0.0000000000000000    0.0000000000000000   53.6046524047999995
   Te   Ge   Fe   O 
    31    16    48     1
Selective dynamics
Direct
  0.3333333101904614  0.1666667060278257  0.1874538598649735   F   F   F
  0.3333333101904614  0.1666667060278257  0.4999588977244986   T   T   T
  0.3333333389211433  0.6666666778507278  0.1874538598649735   F   F   F
  0.3355277457252870  0.6677638812527996  0.5014531543018438   T   T   T
  0.8333333512110457  0.1666667060278257  0.1874538598649735   F   F   F
  0.8322361478089738  0.1644722992236818  0.5014531543018438   T   T   T
  0.8333333799417204  0.6666666778507278  0.1874538598649735   F   F   F
  0.8322361765396485  0.6677638812527996  0.5014531543018438   T   T   T
  0.1666666328954278  0.3333332657950763  0.1259562686651350   F   F   F
  0.1666666328954278  0.3333332657950763  0.4394441702953884   F   F   F
  0.1666667347563973  0.8333333838785535  0.1259562686651350   F   F   F
  0.1666667347563973  0.8333333838785535  0.4394441702953884   F   F   F
  0.6666665472506352  0.3333332657950763  0.1259562686651350   F   F   F
  0.6666665472506352  0.3333332657950763  0.4394441702953884   F   F   F
  0.6666666491116047  0.8333333838785535  0.1259562686651350   F   F   F
  0.6666666491116047  0.8333333838785535  0.4394441702953884   F   F   F
  0.1666666328954278  0.3333332657950763  0.0309009372449864   F   F   F
  0.1666666328954278  0.3333332657950763  0.3442268007011222   F   F   F
  0.1666667347563973  0.8333333838785535  0.0309009372449864   F   F   F
  0.1666667347563973  0.8333333838785535  0.3442268007011222   F   F   F
  0.6666665472506352  0.3333332657950763  0.0309009372449864   F   F   F
  0.6666665472506352  0.3333332657950763  0.3442268007011222   F   F   F
  0.6666666491116047  0.8333333838785535  0.0309009372449864   F   F   F
  0.6666666491116047  0.8333333838785535  0.3442268007011222   F   F   F
  0.3333333101904614  0.1666667060278257  0.2826712667694338   F   F   F
  0.3333333389211433  0.6666666778507278  0.2826712667694338   F   F   F
  0.3341500983955699  0.6670750575879412  0.5964735073035904   T   T   T
  0.8333333512110457  0.1666667060278257  0.2826712667694338   F   F   F
  0.8329249714738323  0.1658499465533990  0.5964735073035904   T   T   T
  0.8333333799417204  0.6666666778507278  0.2826712667694338   F   F   F
  0.8329250002045070  0.6670750575879412  0.5964735073035904   T   T   T
  0.1666666328954278  0.3333332657950763  0.2350768531216474   F   F   F
  0.1629129446961185  0.3370869539943856  0.5455932723884609   T   T   T
  0.1666667347563973  0.8333333838785535  0.2350768531216474   F   F   F
  0.1629130465570879  0.8258260074799419  0.5455932723884609   T   T   T
  0.6666666739160050  0.3333332657950763  0.2350768531216474   F   F   F
  0.6741740503146165  0.3370869539943856  0.5455932723884609   T   T   T
  0.6666666491116047  0.8333333838785535  0.2350768531216474   F   F   F
  0.6666666491116047  0.8333333838785535  0.5480999154857900   T   T   T
  0.3333333101904614  0.1666667060278257  0.0784136042569230   F   F   F
  0.3333333101904614  0.1666667060278257  0.3918211956938151   F   F   F
  0.3333332657908556  0.6666665315901454  0.0784136042569230   F   F   F
  0.3333332657908556  0.6666665315901454  0.3918211956938151   F   F   F
  0.8333333512110457  0.1666667060278257  0.0784136042569230   F   F   F
  0.8333333512110457  0.1666667060278257  0.3918211956938151   F   F   F
  0.8333333068114328  0.6666665315901454  0.0784136042569230   F   F   F
  0.8333333068114328  0.6666665315901454  0.3918211956938151   F   F   F
  0.0000000000000000  0.0000000000000000  0.2120850614634691   F   F   F
  0.0048234577657427  0.0024117288828749  0.5266162760436605   T   T   T
  0.0000000287306818  0.4999999718229020  0.2120850614634691   F   F   F
  0.0000000287306818  0.4999999718229020  0.5259772972710733   T   T   T
  0.5000000410205843  0.0000000000000000  0.2120850614634691   F   F   F
  0.4975883121377094  0.0024117288828749  0.5266162760436605   T   T   T
  0.4999999430858892  0.4999999718229020  0.2120850614634691   F   F   F
  0.4975882142030144  0.4951765140571593  0.5266162760436605   T   T   T
  0.0000000000000000  0.0000000000000000  0.1013303651142365   F   F   F
  0.0000000000000000  0.0000000000000000  0.4148130060070869   F   F   F
  0.0000000287306818  0.4999999718229020  0.1013303651142365   F   F   F
  0.0000000287306818  0.4999999718229020  0.4148130060070869   F   F   F
  0.5000000410205843  0.0000000000000000  0.1013303651142365   F   F   F
  0.5000000410205843  0.0000000000000000  0.4148130060070869   F   F   F
  0.4999999430858892  0.4999999718229020  0.1013303651142365   F   F   F
  0.4999999430858892  0.4999999718229020  0.4148130060070869   F   F   F
  0.0000000000000000  0.0000000000000000  0.0553414650951893   F   F   F
  0.0000000000000000  0.0000000000000000  0.3687946682446892   F   F   F
  0.0000000287306818  0.4999999718229020  0.0553414650951893   F   F   F
  0.0000000287306818  0.4999999718229020  0.3687946682446892   F   F   F
  0.5000000410205843  0.0000000000000000  0.0553414650951893   F   F   F
  0.5000000410205843  0.0000000000000000  0.3687946682446892   F   F   F
  0.4999999430858892  0.4999999718229020  0.0553414650951893   F   F   F
  0.4999999430858892  0.4999999718229020  0.3687946682446892   F   F   F
  0.0000000000000000  0.0000000000000000  0.2581034365360608   F   F   F
  0.0367667439114216  0.0183833719557072  0.5729456174200412   T   T   T
  0.0000000287306818  0.4999999718229020  0.2581034365360608   F   F   F
  0.0000000287306818  0.4999999718229020  0.5722827220417510   T   T   T
  0.5000000410205843  0.0000000000000000  0.2581034365360608   F   F   F
  0.4816166690648770  0.0183833719557072  0.5729456174200412   T   T   T
  0.4999999430858892  0.4999999718229020  0.2581034365360608   F   F   F
  0.4816165711301820  0.4632332279114804  0.5729456174200412   T   T   T
  0.3333333101904614  0.1666667060278257  0.2350959745962555   F   F   F
  0.3333333101904614  0.1666667060278257  0.5490606530629873   T   T   T
  0.3333333389211433  0.6666666778507278  0.2350959745962555   F   F   F
  0.3374129077722721  0.6687064622762922  0.5503976458707591   T   T   T
  0.8333333512110457  0.1666667060278257  0.2350959745962555   F   F   F
  0.8312935667854813  0.1625871371766968  0.5503976458707591   T   T   T
  0.8333333799417204  0.6666666778507278  0.2350959745962555   F   F   F
  0.8312935955161560  0.6687064622762922  0.5503976458707591   T   T   T
  0.1666666328954278  0.3333332657950763  0.0782072415719028   F   F   F
  0.1666666328954278  0.3333332657950763  0.3918020928743005   F   F   F
  0.1666667347563973  0.8333333838785535  0.0782072415719028   F   F   F
  0.1666667347563973  0.8333333838785535  0.3918020928743005   F   F   F
  0.6666665472506352  0.3333332657950763  0.0782072415719028   F   F   F
  0.6666665472506352  0.3333332657950763  0.3918020928743005   F   F   F
  0.6666666491116047  0.8333333838785535  0.0782072415719028   F   F   F
  0.6666666491116047  0.8333333838785535  0.3918020928743005   F   F   F
  0.3333333101904614  0.1666667060278257  0.5831083611593847   T   T   T
 
  